p cnf 427 13986
-1 0
-125 -375 -235 -260 0
-127 -261 -260 -125 0
-276 266 0
-285 -265 -276 321 0
-273 -332 -276 321 0
-276 -281 321 -339 0
-115 -256 -260 -125 0
-378 -217 -115 -256 0
-235 -115 -375 -256 0
-127 -115 -256 -261 0
-321 -310 -318 -329 0
-330 -307 -321 -310 0
-326 -315 -321 -310 0
-325 -310 -314 -321 0
-310 176 0
-321 -323 -312 -310 0
-113 -255 -125 -260 0
-320 -321 -310 -309 0
-285 -345 -265 -320 0
-345 -320 -290 -270 0
-309 -320 -326 -315 0
-345 309 0
-285 -265 -333 -275 0
-275 -333 -290 -270 0
-275 -339 -333 -281 0
-333 345 0
-357 320 0
-357 -285 -309 -265 0
-357 -309 -270 -290 0
-173 -243 -179 -246 0
-173 -402 -243 -204 0
-173 -244 -175 -243 0
-196 -173 -394 -243 0
-173 -187 -250 -243 0
-191 -173 -243 -252 0
-173 -243 -202 -400 0
115 -369 -156 -154 0
-369 115 -157 -159 0
115 -369 -166 -168 0
115 -369 -148 -150 0
-109 -253 -369 115 0
115 -369 -119 -257 0
115 -369 -162 -160 0
-404 -378 -369 115 0
-135 115 -369 -133 0
115 -369 -370 -407 0
115 -369 -375 -412 0
23 221 -140 113 0
-109 -253 -221 -368 0
-127 -221 -368 -261 0
-256 287 0
-285 -265 -287 -266 0
-355 -307 -287 -266 0
-273 -332 -287 -266 0
-330 -343 -266 -287 0
-339 -281 -266 -287 0
-351 -326 -287 -266 0
-363 -315 -266 -287 0
160 214 0
-218 169 0
-390 404 0
-239 -377 -261 -127 0
-378 -217 -127 -261 0
-109 -253 -127 -261 0
-187 -244 -250 -175 0
-187 -402 -250 -204 0
-179 -250 -246 -187 0
167 -187 -250 168 0
-241 -169 -250 -187 0
-391 -193 -250 -187 0
-236 187 0
-236 -387 -382 -226 0
-238 -388 -387 -236 0
-218 -390 -236 -387 0
-375 236 0
-412 -375 -239 -377 0
-135 -133 -375 -412 0
-404 -378 -412 -375 0
83 -82 0
-87 -83 0
-250 387 0
85 -83 0
84 85 0
-239 -377 -150 -148 0
-166 -168 -148 -150 0
-148 -162 -150 -160 0
-135 -133 -148 -150 0
-148 -412 -375 -150 0
-402 226 209 -150 -204 -148 0
145 209 0
-118 245 0
-402 -204 -146 -118 0
-149 -146 -118 -120 0
-158 -146 -126 -118 0
-132 -167 -118 -146 0
-198 -146 -396 -118 0
-161 -128 -146 -118 0
177 -402 147 -204 0
197 177 147 0
41 -39 0
-42 -39 0
-206 -209 0
-205 -209 0
-207 -209 0
-208 -209 0
-209 -210 0
-209 -211 0
-209 -212 0
-209 -213 0
-209 -214 0
-209 -215 0
-209 -216 0
-135 -133 -145 -147 0
-145 -147 -166 -168 0
-145 -419 -147 -227 0
-148 -145 -147 -150 0
-404 -378 -145 -147 0
-412 -145 -375 -147 0
39 -38 0
-177 -402 -204 -245 0
-177 -398 -200 -245 0
-177 -183 -248 -245 0
-177 -175 -244 -245 0
-179 -177 -246 -245 0
-241 -169 -245 -177 0
-177 -245 -396 -198 0
-177 -393 -245 -195 0
-177 -400 -245 -202 0
-187 -177 -250 -245 0
40 41 0
-169 -241 -402 -204 0
-169 -241 -252 -191 0
-110 -134 -204 -402 0
-110 -134 -167 -132 0
-110 -134 177 147 0
-110 -134 -146 -118 0
-110 -134 -395 -197 0
-134 -110 -140 -114 0
-110 -134 393 -114 0
-110 -134 -393 -195 0
-110 -134 -143 -116 0
-109 -253 -125 -260 0
-109 -253 -373 -231 0
-109 -253 -121 -258 0
-109 -129 -253 -262 0
-109 -253 -374 -233 0
-109 -253 -370 -225 0
-109 -253 -377 -239 0
-109 -253 -367 -219 0
-109 -253 -111 -254 0
-109 -253 -375 -235 0
-109 -253 -113 -255 0
217 109 3 -133 -134 0
3 -2 0
6 -5 0
-378 -217 -125 -260 0
-217 -426 -402 -204 0
-217 -426 -147 -145 0
-217 -426 -395 -197 0
-378 -217 -123 -259 0
-217 -378 -119 -257 0
-217 -426 -144 -142 0
-217 -426 -162 -160 0
-217 -426 -400 -202 0
-378 -217 -111 -254 0
-217 -426 -148 -150 0
-217 -426 -198 -396 0
-217 -426 -141 -139 0
-217 -426 -393 -195 0
-378 -217 -113 -255 0
-391 110 0
169 135 -402 -204 0
-218 -390 -382 -226 0
133 206 0
162 202 0
-400 128 0
-202 160 0
-402 -204 -400 -202 0
-202 -400 -246 150 0
-179 -202 -400 -246 0
-183 -248 -400 -202 0
173 -400 -202 141 0
-202 -400 -149 -120 0
-112 -137 -400 -202 0
-171 -400 -202 -242 0
-392 -400 -202 -194 0
-422 -400 -233 -202 0
-143 -116 -400 -202 0
-175 -244 -400 -202 0
-132 -167 -400 -202 0
169 135 -400 -202 0
-169 -241 -400 -202 0
-110 -134 -202 -400 0
-391 -193 -202 -400 0
-402 -418 -204 -225 0
-418 -148 -150 -225 0
-198 -418 -225 -396 0
-142 -418 -144 -225 0
-418 -400 -225 -202 0
-196 -394 -225 -418 0
-370 -225 -260 -125 0
-113 -370 -255 -225 0
-393 -418 -195 -225 0
-391 -193 -418 -225 0
-127 -261 -225 -370 0
-418 370 0
-391 -193 -402 -204 0
-391 -193 -167 -132 0
-391 -193 -252 -191 0
-391 -193 -245 -177 0
-391 -193 -146 -118 0
-391 -193 -197 -395 0
-391 -193 -195 -393 0
-391 -193 -116 -143 0
-132 -128 -167 -161 0
-124 -132 -155 -167 0
-398 -132 -167 -200 0
-132 -197 -395 -167 0
-120 -132 -149 -167 0
-132 -167 -198 -396 0
-132 -114 -167 -140 0
-132 -393 -167 -195 0
-124 -402 -204 156 0
-124 -149 -396 156 0
-154 -156 -150 -148 0
-160 -162 -154 -156 0
-145 -147 -154 -156 0
-142 -144 -148 -150 0
-139 -142 -141 -144 0
-142 -160 -162 -144 0
-142 -147 -145 -144 0
-314 184 0
-325 -315 -314 -326 0
154 212 0
-302 -298 -176 -184 0
-298 358 0
-114 -140 -146 -118 0
-114 -128 -140 -161 0
-114 -140 -202 -400 0
-193 -391 -114 -140 0
175 -114 -246 -179 144 -140 0
-143 -116 -140 -114 0
-402 -114 -204 -140 0
-114 -120 -140 -149 0
179 -177 -245 150 -114 -140 0
-196 -394 -140 -114 0
-139 -141 -150 -148 0
-139 -145 -141 -147 0
-139 -141 -136 -138 0
-139 -141 -156 -154 0
-139 -160 -141 -162 0
-135 -139 -133 -141 0
-141 -153 -139 -151 0
-165 -163 -139 -141 0
-393 114 0
-393 -146 -118 -195 0
-393 -195 -179 -246 0
-393 -400 -195 -202 0
-143 -116 -195 -393 0
-402 -204 -393 -195 0
-393 -195 -120 -149 0
-393 -195 -198 -396 0
-175 -393 -244 -195 0
-196 -394 -393 -195 0
-187 -393 -195 -250 0
-393 -161 -128 -195 0
-191 -252 -195 -393 0
-183 -248 -195 -393 0
-327 282 0
-316 188 0
-310 -321 -327 -316 0
-265 -285 -316 -364 0
-175 -402 -204 -244 0
-175 -244 -246 -179 0
-391 -193 -244 -175 0
-241 -169 -175 -244 0
-392 -244 -175 -194 0
-171 -244 -175 -242 0
-175 -398 -244 -200 0
-175 -396 -244 -198 0
-158 -394 -126 -196 0
-394 -196 -246 -179 0
-196 -394 -400 -202 0
-196 -402 -204 -394 0
-196 -177 -394 -245 0
-196 -394 -146 -118 0
-394 -197 -196 -395 0
-392 -394 -196 -194 0
-112 -394 -137 -196 0
-171 -394 -242 -196 0
-196 -398 -200 -394 0
-187 -196 -250 -394 0
-196 -132 -167 -394 0
-191 -394 -196 -252 0
-419 -394 -196 -227 0
-185 -394 -196 -249 0
-201 -394 -399 -196 0
-217 -426 -394 -196 0
-196 -394 -128 -161 0
-394 116 0
-143 196 0
-201 -116 -143 -399 0
-158 -116 -126 -143 0
-143 -402 -116 -204 0
-143 -116 150 -245 -177 -246 0
-143 -116 -146 -118 0
-116 -197 -395 -143 0
-143 -132 -116 -167 0
-392 -116 -194 -143 0
-112 -116 -143 -137 0
-124 -116 -143 -155 0
-120 -116 -143 -149 0
-143 -128 -161 -116 0
139 207 0
-330 273 0
-273 -332 -342 -284 0
149 -402 -204 150 0
142 208 0
-224 175 0
-224 -381 -226 -382 0
-218 -390 -381 -224 0
-387 -381 -236 -224 0
-264 -281 -286 -339 0
-351 -264 -326 -286 0
-284 -264 -342 -286 0
-264 -329 -286 -354 0
-366 -264 -286 -318 0
-264 -278 -286 -336 0
-288 -264 -286 -268 0
-264 -270 -286 -290 0
-291 -271 -286 -264 0
-360 -264 -312 -286 0
-323 -264 -286 -348 0
-273 -332 -286 -264 0
-285 -265 -286 -264 0
-330 -343 -264 -286 0
-355 -264 -307 -286 0
-350 -264 -325 -286 0
-362 -314 -286 -264 0
-264 -292 -286 -272 0
-264 -275 -286 -333 0
-276 -264 321 -286 0
-264 -266 -287 -286 0
-264 -358 -286 -310 0
-289 -264 -286 -269 0
-324 -264 -286 -349 0
-361 -264 -313 -286 0
-283 -341 -286 -264 0
-328 -353 -264 -286 0
-365 -317 -264 -286 0
-264 -320 -345 -286 0
-357 -264 -309 -286 0
-359 -311 -286 -264 0
-364 -264 -316 -286 0
-363 -264 -315 -286 0
-319 274 0
148 210 0
-304 -296 0
174 -296 0
-412 235 0
-161 202 0
-392 -128 -194 -161 0
-112 -128 -137 -161 0
-402 -128 -204 -161 0
-201 -128 -161 -399 0
-110 -134 -161 -128 0
-193 -391 -161 -128 0
-179 -402 -246 -204 0
-120 246 0
-120 -402 -149 -204 0
-128 -120 -161 -149 0
198 179 150 0
-119 -367 -219 -257 0
-119 -111 -257 -254 0
-119 -257 -260 -125 0
-121 -258 -257 -119 0
-129 -262 -119 -257 0
-113 -255 -257 -119 0
-373 -231 -119 -257 0
-221 -368 -257 -119 0
-378 -253 2 -119 241 -257 0
-109 -253 -119 -257 0
-374 -119 -257 -233 0
-239 -377 -119 -257 0
-375 -235 -119 -257 0
-419 -227 -402 -204 0
-391 -193 -419 -227 0
-109 -253 -371 -227 0
-127 -261 -371 -227 0
-419 371 0
-312 180 0
-339 -281 -278 -336 0
-336 -278 -270 -290 0
-292 -336 -278 -272 0
-284 -342 -336 -278 0
-275 -336 -278 -333 0
-273 -332 -278 -336 0
-285 -265 -278 -336 0
-285 -265 -336 -268 0
-323 278 0
-278 268 0
-288 336 0
-284 -342 -288 -268 0
-329 -354 -268 -288 0
-273 -332 -288 -268 0
-288 -287 -266 -268 0
-288 -276 321 -268 0
-325 -350 -268 -288 0
-362 -314 -268 -288 0
-365 -317 -268 -288 0
-358 -310 -288 -268 0
-275 -288 -268 -333 0
-311 -359 -288 -268 0
-357 -309 -288 -268 0
-345 -320 -288 -268 0
-285 -265 -288 -268 0
166 216 0
-322 277 0
407 418 267 0
-311 178 0
-322 -310 -321 -311 0
-277 267 0
204 191 168 0
-285 332 0
-285 -265 -342 -284 0
-285 -265 -312 -360 0
-285 -265 -359 -311 0
-265 -285 -318 -366 0
-265 -285 -354 -329 0
-307 170 0
-329 284 0
-342 -284 -290 -270 0
-339 -284 -281 -342 0
65 -64 0
-351 -326 -292 -272 0
-325 -292 -272 -350 0
-363 -292 -315 -272 0
-292 -272 -281 -339 0
-292 -272 -270 -290 0
-362 -314 -272 -292 0
-357 -309 -272 -292 0
-285 -265 -292 -272 0
-275 -292 -272 -333 0
-320 -345 -272 -292 0
-355 -292 -307 -272 0
-360 -292 -312 -272 0
-292 -323 -272 -348 0
-288 -292 -272 -268 0
-365 -292 -272 -317 0
102 103 0
68 -67 0
-318 192 0
-123 421 0
-123 -119 -257 -259 0
-123 -259 -125 -260 0
-109 -253 -123 -259 0
-124 -155 -118 -146 0
-124 -402 -204 -155 0
-124 -128 -161 -155 0
-124 -155 -400 -202 0
-132 252 0
-124 248 0
-402 -396 -198 -204 0
-391 -193 -396 -198 0
-202 -400 -198 -396 0
-128 -161 -198 -396 0
-187 -396 -198 -250 0
107 -106 0
-410 231 0
-373 232 0
-157 -410 -373 -159 0
-373 -231 -260 -125 0
-145 -410 -147 -373 0
-231 -113 -373 -255 0
-135 -133 -410 -373 0
-410 -373 -148 -150 0
-410 -373 -151 -153 0
-412 -410 -373 -375 0
-410 -373 -166 -168 0
-165 -163 -373 -410 0
-374 -410 -373 -411 0
-373 -410 -139 -141 0
-373 -410 -162 -160 0
67 -65 0
66 67 0
71 -70 0
-248 385 0
-232 183 0
-226 -232 -382 -385 0
-387 -236 -232 -385 0
-234 -232 -386 -385 0
-218 -390 -385 -232 0
-69 -65 0
-183 155 0
-183 -402 -248 -204 0
-394 -196 -183 -248 0
-183 -124 173 141 0
-391 -193 -183 -248 0
-244 -175 -183 -248 0
-185 -183 -249 -248 0
-201 -183 -248 -399 0
-241 -169 -248 -183 0
-187 -250 -248 -183 0
-398 -402 -204 -200 0
-398 -200 -118 -146 0
-149 -120 -398 -200 0
-179 -398 -200 -246 0
-198 -396 -398 -200 0
-391 -193 -200 -398 0
-398 -393 -195 -200 0
-110 -134 -200 -398 0
-169 -241 -200 -398 0
-398 -200 -161 -128 0
-398 -200 -202 -400 0
-187 -398 -200 -250 0
-179 -197 -395 -246 0
-419 -197 -395 -227 0
-169 -241 -197 -395 0
-402 -197 -395 -204 0
-197 -120 -395 -149 0
-197 -396 -395 -198 0
-114 -197 -395 -140 0
-393 -197 -395 -195 0
-197 -173 -395 -243 0
-392 -197 -395 -194 0
-201 -197 -399 -395 0
-183 -197 -248 -395 0
-422 -197 -395 -233 0
-398 -200 -395 -197 0
-191 -197 -252 -395 0
-197 -400 -395 -202 0
-197 -128 -161 -395 0
-187 -197 -250 -395 0
-329 -354 -270 -290 0
-354 -329 -266 -287 0
-306 366 0
-254 286 0
-125 -111 -260 -254 0
-221 -368 -254 -111 0
-113 -255 -254 -111 0
-127 -261 -111 -254 0
-256 -115 -111 -254 0
-264 111 0
-367 -219 -260 -125 0
-113 -367 -219 -255 0
-415 -402 -204 -219 0
-160 -415 -219 -162 0
-415 -202 -400 -219 0
-142 -415 -219 -144 0
-196 -415 -219 -394 0
-415 -219 -148 -150 0
-415 -219 -198 -396 0
-127 -367 -219 -261 0
-139 -415 -219 -141 0
-415 -393 -195 -219 0
-145 -415 -219 -147 0
-415 -197 -395 -219 0
-150 -138 -148 -136 0
-136 -138 -162 -160 0
-274 -336 -278 -331 0
-274 -288 -331 -268 0
-273 -332 -274 -331 0
-274 -284 -342 -331 0
-274 -272 -292 -331 0
-274 -266 -331 -287 0
-274 -333 -331 -275 0
-274 -276 321 -331 0
-285 -265 -274 -331 0
-308 172 0
-319 -325 -314 -308 0
-311 -322 -319 -308 0
-328 -317 -319 -308 0
-356 -288 -268 -308 0
-319 -323 -308 -312 0
-330 -319 -308 -307 0
-310 -321 -319 -308 0
-319 -327 -316 -308 0
-319 -309 -320 -308 0
-356 -285 -308 -265 0
-356 -270 -308 -290 0
-319 -315 -308 -326 0
-339 -79 -158 -326 74 77 -270 0
-330 -315 -326 -307 0
-315 -322 -326 -311 0
-318 -329 -326 -315 0
-327 -315 -316 -326 0
-315 -312 -326 -323 0
-351 -288 -268 -326 0
-285 -351 -265 -326 0
-351 315 0
-339 351 0
-363 326 0
-363 -315 -268 -288 0
-285 -265 -363 -315 0
17 19 -286 11 0
-16 -12 0
15 -14 0
12 -11 0
18 -17 0
-319 -17 -137 -331 12 15 -264 0
-112 -132 -137 -167 0
-112 -402 -204 -137 0
-110 -134 -137 -112 0
-391 -193 -137 -112 0
-112 -146 -118 -137 0
-112 -197 -137 -395 0
-112 -120 -149 -137 0
-112 -396 -198 -137 0
-112 -114 -140 -137 0
-112 -393 -195 -137 0
136 205 0
-392 112 0
-281 270 0
-274 -281 -339 -331 0
-273 -332 -281 -339 0
-339 -281 -268 -288 0
-285 -265 -281 -339 0
-295 355 0
-343 307 0
-330 -343 -268 -288 0
-330 -292 -343 -272 0
49 -47 0
-51 -47 0
-348 312 0
-285 -348 -265 -323 0
-323 -348 -289 -269 0
-348 -323 -287 -266 0
-323 -290 -348 -270 0
-300 360 0
103 -101 0
-105 -101 0
104 -103 0
-103 239 101 0
-157 -159 -148 -150 0
-157 -419 -227 -159 0
-145 -157 -147 -159 0
-260 290 0
-366 -318 -290 -270 0
-319 -270 -290 -344 0
-364 -316 -290 -270 0
-365 -317 -270 -290 0
-274 -270 -331 -290 0
-358 -310 -270 -290 0
-288 -268 -290 -270 0
-273 -332 -290 -270 0
-362 -314 -290 -270 0
-350 -325 -290 -270 0
-328 -353 -290 -270 0
-291 -271 -290 -270 0
-283 -341 -290 -270 0
-287 -266 -270 -290 0
-289 -269 -270 -290 0
-361 -313 -290 -270 0
-360 -290 -312 -270 0
-359 -311 -290 -270 0
-330 -343 -270 -290 0
-355 -307 -290 -270 0
-285 -265 -290 -270 0
157 213 0
-185 -402 -249 -204 0
-169 -241 -185 -249 0
-391 -193 -185 -249 0
-187 -185 -250 -249 0
74 -73 0
-158 -402 -204 -126 0
-158 -132 -167 -126 0
-110 -134 -158 -126 0
-193 -391 -158 -126 0
-126 249 0
76 -74 0
75 76 0
-234 185 0
-218 -390 -386 -234 0
-234 -387 -386 -236 0
-234 -226 -382 -386 0
-234 -381 -386 -224 0
-374 234 0
-148 -374 -150 -411 0
-374 -412 -411 -375 0
-127 -374 -233 -261 0
-249 386 0
79 -290 73 81 0
-201 -402 -204 -399 0
-201 -132 -399 -167 0
-191 -201 -252 -399 0
-169 -241 -399 -201 0
-110 -134 -399 -201 0
-391 -193 -399 -201 0
-187 -201 -399 -250 0
-299 359 0
-350 314 0
-325 -287 -266 -350 0
-350 -285 -325 -265 0
-119 419 0
-148 -422 -150 -233 0
-422 -198 -233 -396 0
-422 -402 -233 -204 0
-422 -160 -233 -162 0
411 422 270 -339 0
-78 -74 0
-421 -231 -148 -150 0
-421 -231 -197 -395 0
-391 -193 -421 -231 0
-421 -231 -147 -145 0
-421 -231 -400 -202 0
-421 -231 -393 -195 0
-421 -392 -194 -231 0
-421 -157 -159 -231 0
-421 -201 -231 -399 0
-135 -421 -231 -133 0
-396 -231 -198 -421 0
-421 -139 -141 -231 0
-421 -402 -231 -204 0
-421 -231 -166 -168 0
-401 -203 -421 -231 0
-421 -231 -142 -144 0
-153 -151 -231 -421 0
-138 -136 -421 -231 0
-421 -231 -196 -394 0
-421 -231 -199 -397 0
-165 -421 -231 -163 0
-421 -231 -162 -160 0
-410 -373 -407 -370 0
-404 -378 -407 -370 0
-135 -133 -370 -407 0
-407 -370 -166 -168 0
-407 -370 -156 -154 0
-407 -370 -160 -162 0
-370 -148 -407 -150 0
-142 -370 -144 -407 0
-375 -412 -370 -407 0
-423 -402 -235 -204 0
-423 -393 -235 -195 0
-423 -394 -196 -235 0
-423 -197 -395 -235 0
-423 -396 -198 -235 0
-235 -423 -397 -199 0
-398 -423 -235 -200 0
-423 -201 -235 -399 0
-392 -423 -235 -194 0
-138 -136 -423 -235 0
-423 -235 -139 -141 0
-142 -423 -235 -144 0
-145 -423 -235 -147 0
-423 -148 -235 -150 0
-151 -153 -235 -423 0
-423 -235 -156 -154 0
-423 -157 -159 -235 0
-135 -133 -235 -423 0
-391 -193 -423 -235 0
-401 -203 -423 -235 0
-165 -163 -235 -423 0
-171 137 0
-402 -171 -242 -204 0
-191 -171 -252 -242 0
-241 -169 -171 -242 0
-391 -193 -242 -171 0
-177 -171 -245 -242 0
-197 -171 -242 -395 0
-171 -396 -198 -242 0
-187 -171 -242 -250 0
-173 -171 -242 -243 0
-393 -242 -171 -195 0
-121 -258 -219 -367 0
-377 -239 -121 -258 0
-113 -255 -121 -258 0
-121 -258 -123 -259 0
-373 -121 -258 -231 0
-121 -258 -254 -111 0
-258 -121 -125 -260 0
-115 -256 -258 -121 0
-127 -261 -258 -121 0
-375 -235 -258 -121 0
-313 182 0
-325 -314 -313 -324 0
-322 -311 -313 -324 0
-315 -326 -324 -313 0
-318 -329 -324 -313 0
-330 -307 -313 -324 0
-310 -321 -324 -313 0
-320 -309 -324 -313 0
-313 -312 -324 -323 0
-361 -292 -313 -272 0
-361 -313 -268 -288 0
-316 -327 -324 -313 0
-285 -361 -313 -265 0
-289 337 0
-284 -289 -342 -269 0
-289 -292 -269 -272 0
-357 -309 -269 -289 0
-320 -345 -269 -289 0
-350 -325 -289 -269 0
-362 -314 -269 -289 0
-359 -311 -289 -269 0
-336 -289 -278 -269 0
-274 -269 -289 -331 0
-289 -281 -339 -269 0
-319 -269 -344 -289 0
-273 -332 -289 -269 0
-330 -343 -269 -289 0
-355 -307 -289 -269 0
-289 -326 -351 -269 0
-275 -333 -269 -289 0
-366 -289 -318 -269 0
-363 -315 -289 -269 0
-360 -289 -312 -269 0
-288 -289 -268 -269 0
-358 -310 -289 -269 0
-329 -289 -269 -354 0
-289 -287 -269 -266 0
-285 -265 -269 -289 0
-364 -316 -289 -269 0
-147 -153 -151 -145 0
-151 -153 -148 -150 0
-151 -162 -160 -153 0
151 211 0
-165 -163 -157 -159 0
-165 -163 -145 -147 0
-165 -163 -148 -150 0
-165 -163 -160 -162 0
-404 -165 -163 -378 0
163 215 0
203 189 165 0
-401 -110 -203 -134 0
-401 -203 -167 -132 0
-401 -203 -191 -252 0
-401 -203 -391 -193 0
-401 -203 -402 -204 0
-169 -401 -203 -241 0
-217 -426 -203 -401 0
-401 -203 -392 -194 0
-401 -203 -195 -393 0
-401 -203 -394 -196 0
-401 -203 -197 -395 0
-203 -401 -396 -198 0
-401 -203 -199 -397 0
-401 -203 -200 -398 0
-401 -203 -399 -201 0
-401 -203 -202 -400 0
-203 -401 -140 -114 0
-401 -203 -177 -245 0
-401 -203 -146 -118 0
-401 -203 -187 -250 0
-401 -203 -155 -124 0
-401 -203 -149 -120 0
-401 -203 -179 -246 0
-203 -401 -161 -128 0
-203 -401 -158 -126 0
-401 -203 -248 -183 0
-401 -203 -175 -244 0
-401 -203 -116 -143 0
-189 -251 -244 -175 0
-189 -251 -193 -391 0
-251 -189 -248 -183 0
-189 -251 -252 -191 0
-189 -251 -250 -187 0
-189 -251 -246 -179 0
-189 -251 -198 -396 0
-189 -251 -402 -204 0
-189 -251 -399 -201 0
-189 -251 -392 -194 0
-189 -251 -171 -242 0
-189 -251 -195 -393 0
-189 -251 -243 -173 0
-189 -251 -394 -196 0
-189 -251 -197 -395 0
-189 -251 -245 -177 0
-189 -251 -199 -397 0
-189 -251 -181 -247 0
-189 -251 -200 -398 0
-189 -251 -202 -400 0
-169 -251 -189 -241 0
-189 -251 -185 -249 0
-129 -262 -125 -260 0
-129 -262 -373 -231 0
-129 -262 -113 -255 0
-129 -262 -111 -254 0
-129 -262 -235 -375 0
58 -56 0
57 58 0
-129 -262 58 121 0
-130 251 0
-130 -164 -397 -199 0
-130 -164 -122 -152 0
-130 -164 -110 -134 0
-130 -164 -391 -193 0
-130 -164 -155 -124 0
-130 -164 -167 -132 0
-130 -164 -204 -402 0
-130 -164 -128 -161 0
-164 -130 -120 -149 0
-164 -130 -198 -396 0
-130 -164 -194 -392 0
-130 -164 -399 -201 0
-164 -130 -114 -140 0
-130 -164 -195 -393 0
-130 -164 -395 -197 0
-130 -164 -118 -146 0
-130 -164 -398 -200 0
-130 -164 -202 -400 0
-130 -164 -394 -196 0
-130 -164 -116 -143 0
-130 -164 -126 -158 0
-130 -164 -112 -137 0
56 -55 0
-191 -252 -181 -247 0
-181 -204 -247 -402 0
-181 -247 -399 -201 0
-391 -193 -181 -247 0
-169 -241 -181 -247 0
-181 -247 -249 -185 0
-401 -203 -181 -247 0
-400 -202 -181 -247 0
-398 -200 -181 -247 0
-181 -247 -395 -197 0
-181 -247 -245 -177 0
-242 -171 -247 -181 0
-392 -181 -194 -247 0
-247 -181 -393 -195 0
-248 -183 -181 -247 0
-198 -247 -396 -181 0
-181 -247 -246 -179 0
-187 -250 -181 -247 0
-181 -247 -394 -196 0
-181 -247 -244 -175 0
-115 -256 -372 121 0
121 -372 -119 -257 0
-127 -261 -372 121 0
-129 -262 -372 121 0
121 -372 -125 -260 0
-372 121 -254 -111 0
-109 -253 -372 121 0
-291 341 0
-271 -291 -275 -333 0
-291 -345 -271 -320 0
-357 -291 -309 -271 0
-291 -351 -271 -326 0
-291 -271 -342 -284 0
-291 -363 -271 -315 0
-291 -271 -281 -339 0
-291 -271 -354 -329 0
-273 -271 -291 -332 0
-291 -265 -285 -271 0
-291 -271 -288 -268 0
-291 -271 -292 -272 0
-291 -271 -318 -366 0
-291 -348 -323 -271 0
-291 -271 -310 -358 0
-291 -271 -312 -360 0
-291 -271 -278 -336 0
-291 -271 -276 321 0
-291 -271 -309 -320 -113 0
-328 283 0
-97 -328 -164 -341 92 95 -271 0
-271 -341 -342 -284 0
-283 -341 -342 -284 0
-283 -341 -288 -268 0
-283 -341 -278 -336 0
-283 -341 -276 321 0
-283 -341 -333 -275 0
-283 -341 -281 -339 0
-317 190 0
-365 -317 -266 -287 0
-328 -317 -316 -327 0
-328 -317 -310 -321 0
-317 -328 -315 -326 0
-305 -190 -298 0
-305 -190 -297 0
-305 -190 -303 0
-203 -401 -122 -152 0
-203 -401 -219 -415 0
-401 -203 -419 -227 0
-401 -203 -420 121 0
-401 -203 -422 -233 0
-401 -203 -249 -185 0
-401 -203 -243 -173 0
-401 -203 -137 -112 0
-401 -203 -242 -171 0
-420 -157 121 -159 0
-420 121 -160 -162 0
-135 -133 -420 121 0
-420 -201 -399 121 0
-420 -402 121 -204 0
-391 -193 -420 121 0
-420 121 -200 -398 0
-420 121 -400 -202 0
-420 121 -156 -154 0
-165 -163 121 -420 0
-393 -420 121 -195 0
-196 -394 -420 121 0
-420 -396 -198 121 0
-197 -395 -420 121 0
-420 -141 121 -139 0
-142 -144 -420 121 0
-420 121 -150 -148 0
94 -92 0
-96 -92 0
-376 238 0
-388 413 0
-218 -238 -388 -390 0
-238 -388 -385 -232 0
-238 -388 -382 -226 0
-109 -376 -253 -237 0
-237 -424 -135 -133 0
-237 -424 -138 -136 0
-237 -424 -139 -141 0
-237 -424 -142 -144 0
-237 -376 -115 -256 0
-237 -424 -147 -145 0
-237 -424 -148 -150 0
-237 -424 -151 -153 0
-237 -424 -154 -156 0
-237 -424 -157 -159 0
-237 -424 -160 -162 0
-237 -424 -402 -204 0
-237 -424 -392 -194 0
-376 -237 -111 -254 0
-376 -237 -121 -258 0
-376 -237 -123 -259 0
-376 -237 -119 -257 0
-376 -237 -125 -260 0
-237 -424 -393 -195 0
-237 -424 -398 -200 0
-237 -424 -166 -168 0
-237 -424 -395 -197 0
-237 -424 -400 -202 0
-237 -424 -391 -193 0
-237 -424 -399 -201 0
-237 -424 -198 -396 0
-376 -237 -113 -255 0
-237 -424 -394 -196 0
-424 376 0
-152 199 0
-167 -132 -122 -152 0
-204 -402 -122 -152 0
-152 -122 -201 -399 0
-110 -134 -152 -122 0
-193 -391 -122 -152 0
-122 -152 -161 -128 0
-122 -400 -152 -202 0
-398 -200 -122 -152 0
-122 -152 -140 -114 0
-122 -116 -152 -143 0
-152 -122 -146 -118 0
-152 -122 -395 -197 0
-392 -194 -122 -152 0
-122 -152 -393 -195 0
-124 -155 -152 -122 0
-198 -122 -152 -396 0
-122 -152 -120 -149 0
-152 -122 -126 -158 0
-122 -394 -196 -152 0
-397 122 0
-397 -199 -132 -167 0
-397 -199 -185 -249 0
-169 -241 -397 -199 0
-110 -134 -199 -397 0
-391 -193 -199 -397 0
-398 -200 -199 -397 0
-397 -199 -399 -201 0
-397 -199 -400 -202 0
-204 -402 -397 -199 0
-397 -187 -199 -250 0
-397 -199 -128 -161 0
-217 -426 -199 -397 0
-397 -199 -146 -118 0
-397 -199 -245 -177 0
-392 -397 -194 -199 0
-397 -422 -199 -233 0
-237 -424 -199 -397 0
-199 -397 -393 -195 0
-397 -394 -199 -196 0
-397 -197 -395 -199 0
-397 -199 -396 -198 0
-199 -397 -140 -114 0
-397 -199 -120 -149 0
-397 -199 -179 -246 0
-397 -199 -126 -158 0
-248 -183 -397 -199 0
-397 -155 -124 -199 0
-397 -244 -175 -199 0
-397 -116 -199 -143 0
-303 -301 0
-304 -301 0
27 -26 0
23 -21 0
22 23 0
26 -24 0
313 -349 0
-349 -324 -287 -266 0
-349 -324 -270 -290 0
-349 -324 -272 -292 0
-291 -349 -271 -324 0
-285 -349 -265 -324 0
-349 -324 -268 -288 0
30 -29 0
36 -35 0
35 -33 0
32 -30 0
31 32 0
32 -123 115 -259 0
404 426 -332 265 0
-404 -378 -150 -148 0
-404 -378 -139 -141 0
-404 -378 -160 -162 0
-404 -378 -142 -144 0
-404 -378 -136 -138 0
-404 -378 -410 -373 0
-404 -378 -151 -153 0
10 8 -285 2 0
61 63 -279 0
61 63 55 -289 0
-353 317 0
-328 -353 -287 -266 0
-328 -353 -269 -289 0
-328 -353 -265 -285 0
-328 -292 -272 -353 0
-328 -353 -268 -288 0
-304 364 0
-305 365 0
50 -49 0
48 49 0
-60 -56 0
21 -20 0
95 -94 0
93 94 0
-413 237 0
-413 -135 -376 -133 0
-413 -376 -138 -136 0
-413 -376 -141 -139 0
-413 -376 -142 -144 0
-413 -376 -145 -147 0
-413 -376 -150 -148 0
-413 -153 -376 -151 0
-413 -376 -156 -154 0
-413 -376 -157 -159 0
-413 -376 -160 -162 0
-413 -376 -410 -373 0
-413 -376 -166 -168 0
-413 -404 -376 -378 0
-413 -376 -239 -377 0
-25 -21 0
-296 356 0
-344 308 0
-319 -272 -344 -292 0
-319 -288 -268 -344 0
-291 -319 -271 -344 0
-319 -266 -344 -287 0
-265 -319 -285 -344 0
-205 138 0
106 -104 0
-34 -30 0
24 -23 0
33 -32 0
17 -15 0
89 -88 0
86 -85 0
80 -79 0
77 -76 0
62 -61 0
-324 -61 -152 -337 56 -269 59 0
59 -58 0
53 -52 0
52 -50 0
44 -43 0
9 -8 0
8 -6 0
98 -97 0
97 -95 0
-138 392 0
-302 362 0
99 97 -291 91 0
52 54 -288 46 0
-194 136 0
-392 -402 -194 -204 0
-110 -134 -392 -194 0
-217 -426 -392 -194 0
-391 -193 -392 -194 0
-392 -120 -149 -194 0
-392 -396 -194 -198 0
-187 -392 -250 -194 0
-392 -114 -194 -140 0
-392 -173 -243 -194 0
-392 -393 -194 -195 0
-392 -132 -167 -194 0
-227 -371 -125 -260 0
-377 -239 -125 -260 0
115 -369 -125 -260 0
-368 -221 -125 -260 0
174 -330 0
-342 -276 321 -284 0
-292 -276 -272 321 0
-276 -278 321 -336 0
-275 -276 -333 321 0
115 -369 -258 -121 0
-129 -262 -369 115 0
-297 357 0
-309 -318 -320 -329 0
-322 -311 -309 -320 0
-312 -309 -320 -323 0
-316 -327 -320 -309 0
-317 -328 -309 -320 0
-309 -325 -320 -314 0
-357 -309 -287 -266 0
-330 -307 -309 -320 0
-275 -342 -333 -284 0
-273 -332 -333 -275 0
-275 -333 -287 -266 0
-345 -320 -266 -287 0
-173 -177 -245 -243 0
-173 -185 -249 -243 0
-181 -247 -173 -243 0
-397 -199 -173 -243 0
-173 -201 -399 -243 0
-173 -183 -243 -248 0
-173 -398 -243 -200 0
-391 -193 -173 -243 0
-198 -396 -173 -243 0
-241 -169 -173 -243 0
-139 -422 -233 -141 0
-139 -157 -159 -141 0
-139 -418 -141 -225 0
-407 -370 -139 -141 0
-139 -374 -141 -411 0
-419 -141 -227 -139 0
-412 -375 -139 -141 0
-113 -374 -255 -233 0
-113 -377 -255 -239 0
-113 -123 -259 -255 0
-113 -115 -255 -256 0
-113 -255 -227 -371 0
-235 -375 -113 -255 0
-113 -127 -255 -261 0
-221 -115 -368 -256 0
-221 -368 -121 -258 0
-221 -123 -368 -259 0
-129 -262 -368 -221 0
-109 -253 -115 -256 0
-115 -367 -219 -256 0
-115 -256 -225 -370 0
-115 -231 -256 -373 0
-374 -115 -256 -233 0
-115 -256 -227 -371 0
-115 -256 -257 -119 0
-115 -256 -377 -239 0
-129 -262 -115 -256 0
-115 -123 -259 -256 0
-283 -341 -287 -266 0
-291 -271 -287 -266 0
-366 -287 -266 -318 0
-364 -316 -287 -266 0
-356 -266 -287 -308 0
-362 -314 -287 -266 0
-287 -278 -336 -266 0
-292 -287 -272 -266 0
-360 -287 -266 -312 0
-342 -284 -266 -287 0
-361 -313 -287 -266 0
-359 -311 -287 -266 0
-206 -214 0
-205 -214 0
-214 -207 0
-208 -214 0
-210 -214 0
-211 -214 0
-212 -214 0
-213 -214 0
-214 -215 0
-214 -216 0
-378 218 0
-241 390 0
-191 -187 -252 -250 0
-191 -252 -400 -202 0
-158 -400 -126 -202 0
-185 -400 -202 -249 0
-201 -400 -399 -202 0
-419 -227 -202 -400 0
-146 -400 -202 -118 0
-160 -145 -162 -147 0
-147 -145 -138 -136 0
-145 -374 -411 -147 0
-422 -145 -147 -233 0
-201 -146 -399 -118 0
-392 -146 -194 -118 0
-177 -201 -399 -245 0
-392 -177 -194 -245 0
-177 -185 -245 -249 0
-191 -177 -252 -245 0
167 -177 168 -245 0
193 169 135 0
-169 -241 -246 -179 0
-169 -241 -396 -198 0
-169 -241 -195 -393 0
-169 -241 -196 -394 0
-169 -241 -392 -194 0
5 -3 0
-7 -3 0
-404 -378 -157 -159 0
-404 -378 -166 -168 0
-378 -217 -121 -258 0
-129 -262 -378 -217 0
-404 -378 -411 -374 0
-404 -378 -239 -377 0
-404 -378 -154 -156 0
4 5 0
-110 -134 167 168 0
-110 -134 -155 -124 0
-110 -134 -149 -120 0
-110 -134 -396 -198 0
-110 -134 -196 -394 0
-135 -133 -157 -159 0
-135 -374 -133 -411 0
-135 -422 -233 -133 0
-135 -133 -136 -138 0
-135 -415 -133 -219 0
-135 -133 -144 -142 0
-135 -133 -151 -153 0
-135 -133 -156 -154 0
-135 -133 -162 -160 0
-135 -165 -163 -133 0
-135 -133 -419 -227 0
-135 -133 -166 -168 0
-135 -133 -225 -418 0
-135 -133 -239 -377 0
-423 -235 -166 -168 0
-412 -375 -166 -168 0
-166 -415 -168 -219 0
-166 -157 -159 -168 0
-374 -166 -411 -168 0
-422 -166 -233 -168 0
-138 -136 -168 -166 0
-217 -426 -168 -166 0
-418 -225 -166 -168 0
-227 -419 -166 -168 0
-151 -153 -168 -166 0
-156 -154 -166 -168 0
-165 -163 -166 -168 0
-142 -166 -144 -168 0
-206 -205 0
-206 -207 0
-206 -208 0
-206 -210 0
-206 -211 0
-206 -212 0
-206 -213 0
-206 -215 0
-206 -216 0
-239 -377 -160 -162 0
-225 -418 -160 -162 0
-160 -157 -162 -159 0
-160 -374 -411 -162 0
-160 -419 -162 -227 0
-158 -128 -161 -126 0
-374 -370 -407 -411 0
-370 -225 -257 -119 0
-123 -370 -259 -225 0
-370 -225 -254 -111 0
-370 -225 -121 -258 0
-129 -262 -370 -225 0
-370 -407 -138 -136 0
-413 -376 -370 -407 0
-165 -163 -370 -407 0
-370 -407 -153 -151 0
-157 -370 -407 -159 0
-193 -391 -219 -415 0
-391 -193 -179 -246 0
-391 -193 -155 -124 0
-391 -193 -149 -120 0
-391 -193 -394 -196 0
-391 -193 -422 -233 0
-217 -426 -156 -154 0
-156 -154 -138 -136 0
-142 -144 -154 -156 0
-412 -375 -154 -156 0
-154 -415 -156 -219 0
-154 -374 -411 -156 0
-422 -154 -233 -156 0
-154 -157 -156 -159 0
-418 -225 -154 -156 0
-239 -377 -156 -154 0
-165 -163 -156 -154 0
-419 -227 -156 -154 0
-314 -325 -329 -318 0
-322 -325 -314 -311 0
-330 -307 -314 -325 0
-314 -325 -323 -312 0
-316 -327 -325 -314 0
-291 -271 -325 -350 0
-328 -317 -314 -325 0
-142 -157 -159 -144 0
-142 -374 -411 -144 0
-422 -142 -233 -144 0
-410 -373 -144 -142 0
-153 -144 -151 -142 0
-165 -163 -144 -142 0
-419 -142 -144 -227 0
-412 -375 -144 -142 0
-302 -318 -329 336 0
-305 -190 -302 -184 0
-302 -300 -180 -184 0
-205 -212 0
-207 -212 0
-208 -212 0
-210 -212 0
-211 -212 0
-212 -213 0
-212 -215 0
-212 -216 0
-293 -294 0
-358 -292 -310 -272 0
-285 -265 -310 -358 0
-201 -114 -140 -399 0
-124 -114 -140 -155 0
-398 -114 -200 -140 0
-158 -114 -140 -126 0
-114 -140 -396 -198 0
-185 -393 -195 -249 0
-201 -393 -399 -195 0
-124 -393 -155 -195 0
-158 -393 -126 -195 0
-422 -393 -233 -195 0
-419 -393 -195 -227 0
-316 -327 -329 -318 0
-322 -311 -316 -327 0
-327 -312 -316 -323 0
-330 -307 -327 -316 0
-305 -190 -304 0
-231 -127 -373 -261 0
-127 -123 -261 -259 0
-127 -261 -257 -119 0
-376 -237 -127 -261 0
-129 -262 -127 -261 0
-295 -306 0
-295 -305 -190 0
196 175 144 0
-191 -244 -252 -175 0
-185 -244 -175 -249 0
-197 -244 -175 -395 0
-201 -244 -175 -399 0
-124 -394 -155 -196 0
-120 -394 -149 -196 0
-396 -394 -196 -198 0
-422 -394 -196 -233 0
-143 -398 -116 -200 0
-396 -116 -198 -143 0
-205 -207 0
-207 -208 0
-207 -210 0
-207 -211 0
-213 -207 0
-215 -207 0
-207 -216 0
-330 -307 -318 -329 0
-330 -322 -307 -311 0
-330 -307 -323 -312 0
-330 -328 -317 -307 0
-330 -291 -271 -343 0
-273 -332 -292 -272 0
-283 -273 -332 -341 0
-124 -155 -120 -149 0
-158 -126 -149 -120 0
-399 -201 -120 -149 0
-205 -208 0
-208 -210 0
-208 -211 0
-208 -213 0
-208 -215 0
-208 -216 0
-381 -224 -385 -232 0
-238 -388 -381 -224 0
-283 -341 -274 -331 0
-291 -271 -274 -331 0
-205 -210 0
-211 -210 0
-210 -213 0
-210 -215 0
-210 -216 0
-305 -190 -296 0
-123 -375 -235 -259 0
-375 -235 -254 -111 0
-179 -392 -246 -194 0
-171 -242 -179 -246 0
-191 -252 -179 -246 0
-183 -248 -246 -179 0
-185 -179 -249 -246 0
-399 -201 -179 -246 0
-227 -371 -258 -121 0
-129 -262 -371 -227 0
-371 -227 -111 -254 0
-123 -227 -371 -259 0
-318 -329 -312 -323 0
-328 -317 -323 -312 0
-323 -52 -149 -336 47 50 -268 0
-311 -322 -323 -312 0
-305 -300 -190 -180 0
-366 -318 -288 -268 0
-364 -316 -288 -268 0
-355 -307 -288 -268 0
-205 -216 0
-211 -216 0
-213 -216 0
-215 -216 0
-322 -311 -329 -318 0
-328 -317 -311 -322 0
-305 -190 -299 0
-191 -185 -249 -252 0
-191 -398 -200 -252 0
-191 -252 -183 -248 0
-392 -191 -252 -194 0
-191 -397 -199 -252 0
-191 -252 -396 -198 0
-319 -329 -318 -308 0
-328 -317 -318 -329 0
-329 104 -167 -106 101 -342 -272 0
-362 -285 -314 -265 0
-365 -317 -285 -265 0
-283 -341 -285 -265 0
-356 -272 -292 -308 0
-359 -311 -292 -272 0
-364 -292 -272 -316 0
-283 -292 -341 -272 0
70 -68 0
-239 -377 -259 -123 0
-123 -367 -259 -219 0
-123 -111 -259 -254 0
-129 -262 -123 -259 0
-123 -374 -259 -233 0
-201 -124 -155 -399 0
-158 -124 -155 -126 0
-112 -124 -155 -137 0
-392 -124 -194 -155 0
-124 -197 -155 -395 0
-124 -155 -396 -198 0
-183 -171 -248 -242 0
-392 -183 -194 -248 0
-183 -248 -198 -396 0
-305 -190 -306 0
-158 -126 -396 -198 0
-185 -198 -396 -249 0
-399 -201 -198 -396 0
-373 -231 -111 -254 0
200 183 156 0
-217 -426 -398 -200 0
-392 -200 -398 -194 0
-415 -398 -200 -219 0
-112 -200 -398 -137 0
-158 -398 -126 -200 0
-185 -398 -249 -200 0
-201 -398 -200 -399 0
-171 -398 -200 -242 0
-422 -398 -200 -233 0
-398 -200 -418 -225 0
-419 -227 -398 -200 0
-197 -158 -126 -395 0
-185 -197 -249 -395 0
-157 -239 -377 -159 0
-129 -262 -377 -239 0
-239 -377 -111 -254 0
-374 -239 -411 -377 0
-165 -163 -377 -239 0
-111 -374 -254 -233 0
-313 -324 -308 -319 0
-157 -415 -159 -219 0
-157 -159 -136 -138 0
-151 -153 -157 -159 0
-157 -412 -159 -375 0
-217 -426 -159 -157 0
-157 -418 -225 -159 0
-129 -262 -367 -219 0
13 14 0
14 -12 0
-171 -201 -242 -399 0
-185 -171 -249 -242 0
-242 -171 -199 -397 0
-205 -211 0
-205 -213 0
-205 -215 0
-112 -152 -137 -122 0
-112 -397 -199 -137 0
-112 -158 -137 -126 0
-112 -201 -399 -137 0
-392 -158 -194 -126 0
-355 -291 -307 -271 0
47 -46 0
101 -100 0
-211 -213 0
-213 -215 0
-392 -185 -249 -194 0
-136 -138 -422 -233 0
-151 -153 -422 -233 0
-422 -392 -194 -233 0
-121 -374 -258 -233 0
-129 -262 -374 -233 0
-165 -422 -233 -163 0
-238 -388 -386 -234 0
-415 -201 -399 -219 0
-392 -201 -399 -194 0
-217 -426 -201 -399 0
-419 -201 -227 -399 0
-201 -418 -399 -225 0
-291 -271 -311 -359 0
-153 -151 -415 -219 0
-165 -415 -219 -163 0
-415 -397 -199 -219 0
-138 -136 -419 -227 0
-419 -397 -227 -199 0
-153 -151 -227 -419 0
-165 -163 -419 -227 0
-392 -419 -194 -227 0
-136 -138 -374 -411 0
-151 -153 -374 -411 0
-413 -376 -374 -411 0
-165 -374 -163 -411 0
115 -374 -369 -411 0
115 -369 -410 -373 0
-410 -373 -136 -138 0
-397 -418 -225 -199 0
-136 -138 -418 -225 0
-392 -418 -194 -225 0
-165 -163 -225 -418 0
-153 -151 -418 -225 0
-136 -138 -375 -412 0
-375 -412 -151 -153 0
-413 -376 -412 -375 0
-165 -163 -375 -412 0
-305 -190 -301 0
-328 -317 -324 -313 0
-217 -426 -151 -153 0
-153 -151 -369 115 0
-153 -136 -151 -138 0
-163 -153 -165 -151 0
-365 -317 -269 -289 0
-317 -328 -289 -269 0
-356 -269 -289 -308 0
-283 -341 -289 -269 0
-291 -271 -269 -289 0
-211 -215 0
-129 -262 -121 -258 0
-217 -426 -163 -165 0
-165 115 -369 -163 0
-163 -165 -136 -138 0
-271 -317 -272 165 -292 0
-328 -317 -288 -129 -268 0
-362 -291 -314 -271 0
-291 -364 -316 -271 0
-291 -361 -313 -271 0
-356 -291 -271 -308 0
92 -91 0
129 251 92 -164 237 0
237 -94 251 92 0
-413 -376 -369 115 0
-217 -426 -138 -136 0
88 -86 0
79 -77 0
61 -59 0
-241 -169 149 150 0
158 -243 159 -173 0
149 -158 150 -126 0
-285 -265 -309 -320 0
-169 -241 147 146 0
-135 -138 -210 0
-135 -138 -207 0
-135 -138 -141 0
-288 -267 -268 -269 0
-322 -311 -117 -287 -266 0
-306 -299 0
155 -191 -252 156 0
-112 -185 -137 -249 -246 150 0
146 -185 -249 147 0
-275 -333 -339 -270 0
-288 -268 -339 -270 0
-336 -278 -270 -339 0
-342 -284 -339 -270 0
-112 185 -137 159 0
-312 -323 -287 -119 -266 0
149 -116 -143 150 0
-143 -116 177 147 0
-316 -327 -290 -127 -270 0
-323 -290 -270 -119 -312 0
-325 -264 -286 -314 0
-135 -139 -147 -141 0
-289 -278 -266 -269 -119 0
-299 -301 0
-304 -303 0
-264 -281 -125 -287 -266 0
-298 -303 0
-298 -297 0
233 74 -157 125 -158 0
-303 -299 0
-303 -302 0
-135 -210 -156 0
-135 -141 -156 0
-309 -264 -113 -320 -286 0
266 256 0
144 -29 0
-208 144 0
-183 -248 144 -244 -118 -146 0
-244 -243 -120 -140 144 -149 0
115 -37 0
256 115 208 0
-34 36 29 115 0
162 -214 0
-90 282 261 214 0
-248 -123 0
240 -377 0
-200 155 -67 402 240 0
89 316 214 90 -282 0
161 -84 0
375 235 327 -187 0
83 84 214 0
-85 235 83 0
250 -128 0
161 250 -202 0
150 -210 0
-245 -177 224 144 -246 150 0
149 -244 150 144 0
167 168 150 -246 0
179 -114 150 -195 0
321 -358 0
-111 415 0
243 -114 0
140 243 -195 0
-173 -114 -246 150 0
-158 201 0
233 76 -158 125 0
78 -186 260 -158 0
-74 126 0
126 -399 0
126 185 0
111 254 205 0
274 -19 254 205 0
-331 344 0
344 -319 356 -111 0
166 154 -67 0
402 -168 0
-90 304 -282 0
-202 -82 0
400 -162 0
253 109 206 0
-19 -274 254 296 0
391 -135 0
285 -253 0
109 -265 0
330 -355 0
332 -307 330 135 0
-404 390 -426 330 -170 0
378 217 -169 330 0
-285 -265 279 -337 0
-273 265 0
253 265 0
3 193 -343 265 0
285 273 0
169 6 273 -217 0
343 -332 0
-273 -332 279 -337 0
134 -4 0
134 241 -193 0
110 -3 0
-7 169 -9 0
-390 169 110 0
169 390 -217 0
-241 -109 0
-5 7 206 -253 3 241 218 -170 0
-378 -390 2 0
-426 378 0
390 378 0
5 378 -134 -133 330 -8 0
-217 8 0
-217 -265 0
-273 -10 253 295 0
-273 9 206 307 253 10 0
-330 343 355 -109 0
-217 -109 355 0
423 -127 0
-250 -127 0
-127 -235 364 0
-240 -387 377 -236 0
-87 84 0
387 375 0
-412 -423 387 327 -188 0
187 387 -235 0
-87 235 127 82 85 0
-375 -387 82 0
327 -364 0
375 85 -160 -161 -88 327 0
-14 219 12 0
14 -16 111 219 11 0
-304 -289 254 -269 138 0
171 -124 138 -155 0
254 264 0
319 -356 0
14 367 319 -17 -136 -137 0
-274 264 0
-274 -289 -269 156 259 -111 0
-274 279 -331 -337 0
284 -108 216 263 0
191 104 284 -239 0
272 -284 0
272 263 0
204 -354 272 101 0
67 239 293 124 156 -154 366 -232 272 -259 0
168 -216 0
-292 342 0
-274 -272 -111 -292 259 156 0
-69 67 231 123 64 0
-373 -385 64 0
-200 155 248 0
-231 -123 362 0
232 248 212 65 69 293 0
-67 231 65 0
70 306 342 108 -314 0
106 -239 0
410 -385 0
18 308 205 19 -274 254 0
354 -342 0
-284 -337 -342 279 0
329 -366 0
318 -354 0
117 -267 0
-225 -267 0
147 -209 0
-395 -244 177 147 144 0
167 -245 168 147 0
-177 -244 144 -118 0
-146 197 0
175 -146 144 -118 0
-39 118 0
118 -395 0
177 118 0
395 -147 0
418 -117 0
-245 -117 0
39 209 40 0
-41 225 39 0
-413 -165 215 117 245 -177 407 -178 0
-197 146 245 0
-413 -165 -177 215 117 245 -370 -178 0
-117 -225 359 0
-370 38 -382 0
-407 225 0
226 -370 0
177 -226 0
-226 377 -382 -240 0
146 -40 0
225 -177 322 370 0
-42 40 0
382 -245 0
370 382 0
-418 -407 382 322 -178 0
177 382 -225 0
276 -321 0
175 33 276 115 0
159 -213 0
191 -240 0
-181 -247 168 -166 -149 191 -120 0
191 -107 -105 0
204 -167 0
167 402 0
167 -102 0
-204 167 252 0
-173 -243 168 -120 -132 -149 0
132 -402 0
-37 -276 256 298 0
276 -37 256 208 0
128 -83 0
224 -369 0
-369 -381 29 0
175 -132 -167 144 0
175 381 115 0
381 -244 0
-244 -115 0
369 381 0
158 -201 249 0
74 213 75 0
-76 233 74 0
260 213 125 0
281 -81 213 260 0
80 315 213 81 -281 260 0
-81 303 -281 260 0
125 -81 0
125 -270 0
-78 80 73 125 0
158 -75 0
374 326 233 -185 0
-411 233 0
-240 -234 -386 377 0
374 386 0
-422 -411 -186 386 326 0
185 386 -233 0
-315 186 0
260 270 0
201 74 -351 270 0
112 -12 0
194 -137 0
242 -112 0
242 137 -194 0
-374 73 -386 0
348 -336 0
279 -337 -336 -278 0
278 288 0
50 179 278 -227 0
-54 278 257 210 0
257 268 0
198 268 47 -348 0
279 -337 -268 -288 0
-246 -119 0
149 -48 0
-198 149 246 0
257 119 210 0
288 -257 0
-227 52 0
-227 -268 0
323 -360 0
49 -52 -149 371 323 -148 0
119 -54 0
119 -268 0
-51 53 46 119 0
-47 120 0
179 120 0
120 -396 0
-149 198 0
-134 193 0
241 -110 0
-72 302 -280 0
-65 124 0
124 -398 0
124 183 0
65 66 212 0
-184 -293 0
-70 280 284 -105 -191 263 259 0
156 -212 0
155 -146 156 -118 0
-124 -197 -395 156 0
-304 -289 259 -269 156 0
-181 -247 -116 -143 -124 156 0
-116 -143 -246 156 -179 -124 0
-124 -149 156 -120 0
200 -155 0
-410 -421 325 385 -184 0
398 -156 0
155 398 0
-105 102 0
101 102 216 0
155 -66 0
373 231 -183 0
-69 66 0
244 -116 0
34 -176 256 -143 0
394 -144 0
-303 363 0
351 363 -326 -125 0
-233 -125 363 0
-297 -299 0
292 -263 0
-54 300 -278 257 0
107 318 108 216 -284 263 0
-290 339 0
-337 279 -290 -270 0
281 290 0
281 -326 0
77 185 281 -233 0
36 310 208 256 -276 37 0
53 312 210 54 -278 257 0
113 -28 0
-25 27 113 20 0
114 173 0
-21 -27 114 0
-140 195 0
-174 25 255 -140 0
-221 26 0
399 -159 0
141 195 0
141 -207 0
-275 -337 -333 279 0
275 -320 0
24 173 -221 275 0
275 -28 255 207 0
-227 -119 120 360 0
325 -362 0
-309 174 0
345 357 -113 -320 0
13 12 205 0
184 -71 -123 -280 0
68 183 -231 280 0
140 393 0
393 -141 0
5 169 -241 2 173 217 393 0
-108 105 0
105 263 -192 -167 0
-5 -390 3 -23 241 -25 -174 368 -173 0
-25 173 -27 0
407 -382 0
-203 -401 147 -225 407 -353 271 0
-418 42 -407 0
373 -421 0
412 -387 0
-423 375 0
86 187 -235 282 0
322 -359 0
350 362 -123 -325 0
21 22 207 0
140 -22 0
-422 374 0
411 -386 0
-225 43 0
367 -415 0
-72 318 -107 -184 0
103 -106 -166 329 377 -167 0
137 -13 0
-16 13 0
18 -16 11 111 0
349 -337 0
-264 279 -286 -337 0
-281 -337 -339 279 0
-337 279 -272 -292 0
-337 279 -266 -287 0
-283 -341 279 -337 0
-291 -271 279 -337 0
289 -258 0
-63 301 258 279 0
324 -361 0
58 372 -151 324 -61 -152 0
289 -279 0
-279 -324 0
59 181 -279 121 0
-279 -63 258 211 0
153 -211 0
269 279 0
269 258 0
199 -349 269 56 0
258 121 211 0
121 -63 0
121 -269 0
-60 62 55 121 0
165 -215 0
341 -317 328 165 0
-401 165 146 -178 -197 0
262 129 215 0
-99 283 262 215 0
164 251 -203 0
129 -99 0
129 -271 0
129 -96 91 98 0
291 -262 0
130 -92 0
-401 130 0
189 130 0
-164 203 0
129 237 94 -164 0
262 96 -164 294 0
57 211 56 0
247 -122 0
152 -199 247 0
-420 372 0
-283 271 0
262 271 0
291 283 0
189 95 283 -237 0
353 -341 0
328 -365 0
-189 376 237 328 0
-99 -283 305 262 0
-165 401 0
420 -121 0
93 92 215 0
92 203 271 -353 0
189 -238 0
-238 -388 -240 377 0
388 376 0
388 -251 0
-413 388 -424 -190 328 0
189 388 -237 0
129 -96 91 94 237 0
60 -182 -152 258 0
122 -56 0
397 -153 0
361 -301 0
62 313 211 258 63 279 0
99 98 215 262 317 -283 0
116 -30 0
175 -36 -34 0
369 -35 -142 -143 321 32 0
426 -109 0
-404 217 0
-404 7 -426 0
353 365 -328 -129 0
-237 -129 365 0
-51 48 0
47 48 210 0
-54 51 0
51 257 -149 0
152 -57 0
-63 60 0
164 -93 0
-413 96 -424 0
-376 -388 91 0
-7 4 0
4 3 206 0
253 7 -170 -134 0
-69 183 -71 0
-28 25 0
169 -241 173 -4 -9 393 0
-34 31 0
30 31 208 0
-37 34 0
-16 171 -18 0
15 171 274 -219 0
-82 -89 162 0
187 -87 -89 0
76 -158 374 326 -157 -79 0
181 -60 -62 0
179 -51 -53 0
-42 44 38 117 0
-330 -8 -134 -332 6 -265 0
189 -96 -98 0
94 376 -164 -163 328 -97 0
-190 388 -407 118 -370 424 328 -97 -178 0
-45 42 0
117 -45 0
35 37 -287 32 29 0
-218 -390 -240 377 0
-381 -240 377 -224 0
396 -150 0
111 -19 0
-243 -113 0
-286 331 0
-305 -304 -318 -329 0
135 -206 0
8 -273 -332 253 -169 0
217 109 5 -134 0
-5 217 3 0
-7 217 2 5 109 0
-64 -67 167 -192 -166 -168 -154 0
-302 -295 0
127 -90 0
-87 89 127 82 0
236 250 214 87 -85 83 -188 0
-90 87 0
-423 87 -412 0
-219 17 0
-231 70 0
69 -421 -410 0
71 184 192 354 0
177 -42 -44 0
41 370 -146 -43 322 -145 0
191 155 402 -200 0
143 -196 244 0
-249 -125 0
-297 -303 0
422 -125 0
79 -233 0
-233 -270 0
79 -339 -185 -281 260 0
52 -336 257 -179 -278 0
-49 227 47 0
71 318 -107 184 0
200 65 -350 -259 0
143 -31 0
106 -342 263 -191 -284 0
35 -276 321 256 -175 0
280 -325 0
-235 88 0
-25 22 0
78 -422 -411 0
-81 78 0
-19 16 0
106 108 100 103 -292 0
424 -129 0
-251 -129 0
97 -283 -189 -341 262 0
-237 -271 0
96 -94 215 -262 251 92 238 294 0
-237 97 0
-60 57 0
-99 96 0
-7 9 2 109 0
-118 -126 159 147 -181 -247 0
-181 168 -247 167 0
-322 -311 303 159 260 -284 -342 0
314 318 212 -284 263 259 0
-272 -263 100 0
-322 -311 -272 -117 -292 0
-292 -272 159 -315 -270 0
-322 -311 -318 342 168 0
-314 -325 -318 342 168 0
-275 -333 -113 -284 -315 168 159 -270 -318 0
-318 342 339 -315 168 159 0
-315 -326 -318 342 168 0
-318 342 72 280 168 259 0
-314 -292 156 259 -272 0
-280 -292 -314 156 -123 -272 0
-112 -118 -247 -181 138 -146 0
-321 -310 -290 -115 -270 0
315 303 213 0
-277 -311 -310 -276 -339 144 147 -270 0
-276 321 -339 -270 0
-181 -247 -112 147 177 -137 0
-314 -325 -312 336 150 0
-306 333 -48 336 -278 257 -140 141 150 0
-302 336 255 -48 -278 333 257 -184 141 150 0
-303 -278 141 255 257 333 150 336 -48 0
-309 333 -312 336 141 150 0
-306 312 46 -192 -48 -278 210 257 0
-247 -181 -158 -126 -116 144 0
-114 -116 -181 -247 -140 144 0
184 293 -280 212 0
-280 -314 -270 156 -290 -123 0
-336 -268 -270 -290 0
-247 -181 -140 159 -114 -126 0
-309 -325 -275 -314 256 298 141 144 0
-316 -327 168 342 -318 0
-325 -314 298 -311 -115 144 256 -277 147 0
-314 -280 156 -123 -287 -266 0
-309 -325 333 -314 141 0
-309 -318 141 333 -329 0
-293 -309 333 141 0
-315 333 -309 141 -326 0
-312 -309 -320 336 150 0
224 116 -256 321 34 208 -247 -181 -35 0
-302 316 261 -184 82 214 0
318 -303 -167 -284 263 216 0
318 -303 -284 100 263 216 -102 0
-318 -329 336 -312 150 0
314 310 -31 -276 29 212 208 256 259 0
-315 -322 -311 159 339 0
-311 -322 -270 -290 -117 0
-315 -326 336 150 -312 0
-315 314 333 141 255 212 -326 -280 0
-288 -268 159 -315 -270 0
-325 -315 339 159 -314 0
-280 -314 156 -268 -288 -123 0
174 -312 336 150 0
331 -308 138 -323 -312 0
-124 179 156 -155 150 0
231 123 -155 65 0
-181 -247 146 147 0
146 -158 -126 147 0
146 -183 147 -248 0
-402 -204 147 -245 0
146 -244 147 144 0
177 -124 147 -155 0
181 153 -146 -118 0
149 -181 -247 150 0
333 -309 -313 -324 141 0
-319 -309 -308 333 141 0
-275 -336 -278 320 -309 0
-264 -275 -286 -309 141 0
158 -187 -250 159 0
158 -114 159 -195 0
158 -183 -248 159 0
-181 -247 159 158 0
-185 -419 -249 -227 0
-185 -421 -231 -249 0
-185 -420 121 -249 0
183 -393 -195 156 0
-245 -177 -420 121 0
-177 -423 -245 -235 0
-177 132 -192 240 -103 105 -245 216 0
314 256 144 259 -270 -31 212 159 -315 255 0
-312 -323 339 -315 159 0
-260 -270 -185 0
312 -299 210 -178 -278 -48 46 257 0
-311 -322 -312 336 150 0
-322 -311 -308 331 138 0
-309 333 -290 -113 141 -270 0
300 257 -270 150 -290 0
256 -31 212 -270 144 -290 259 0
-181 -247 -114 -140 156 -124 0
171 185 -247 159 -181 138 0
-152 -122 -201 -126 0
-244 -126 -175 153 -158 -122 0
309 297 207 0
-300 309 -180 207 255 0
309 -306 207 -192 -275 20 -22 0
-323 -336 257 50 0
-310 -321 -336 297 -278 255 0
-312 -321 -310 336 150 0
-310 -321 -288 -268 -115 0
-319 -266 -287 -308 0
-287 -266 159 -125 -315 -281 0
-314 -287 259 -266 156 0
171 224 138 -176 -181 -247 144 0
167 -143 168 -116 0
-120 -116 -247 -181 -149 144 0
-274 275 -331 115 -369 -113 0
-244 -175 -420 121 0
-175 -244 -146 -118 -126 159 0
-252 -244 144 -167 -146 -118 0
116 175 0
-421 -231 -247 -181 0
-173 -421 -231 -243 0
-191 -421 -231 -252 0
-421 -177 -231 -245 0
-421 -231 -225 -418 0
-421 -175 -231 -244 0
-314 -288 -268 259 156 0
167 -173 168 -243 0
167 168 -122 153 0
167 -183 168 -248 0
-191 -420 -252 121 0
-191 -252 -418 -225 0
-318 -329 337 153 -313 0
132 191 0
132 -101 0
-240 369 -176 29 244 377 208 0
132 240 -103 -107 105 216 -247 -181 -263 0
-319 -272 -308 -292 0
-292 -276 -272 -310 144 256 -115 0
-173 240 -167 216 -243 -245 -146 0
-173 -243 -227 -419 0
-124 -200 -400 -202 0
-124 -128 -200 -161 0
221 113 -140 243 0
-234 372 55 324 -182 247 -386 211 0
-419 -422 -233 -227 0
-423 -422 -233 -235 0
-422 -187 -233 -250 0
-422 -244 -175 -233 0
-422 -415 -233 -219 0
-422 -171 -233 -242 0
-420 -422 -233 121 0
-181 -422 -247 -233 0
-421 -422 -231 -233 0
-173 -422 -243 -233 0
-422 -183 -248 -233 0
-177 -422 -233 -245 0
171 112 0
-319 -331 254 0
-323 -264 -312 -286 0
316 304 0
-421 -415 -219 -231 0
-173 -415 -219 -243 0
-191 -415 -252 -219 0
-420 -415 -219 121 0
-415 -181 -219 -247 0
-187 -415 -250 -219 0
-423 -415 -219 -235 0
-415 -177 -245 -219 0
-418 -415 -225 -219 0
-175 -415 -219 -244 0
-415 -185 -219 -249 0
187 128 0
181 122 0
331 -313 138 337 153 -308 0
-423 -235 -247 -181 0
-420 -423 121 -235 0
-191 -423 -235 -252 0
-423 -418 -235 -225 0
-423 -244 -235 -175 0
-293 333 255 0
-181 -247 159 -120 -126 -149 0
-420 121 -246 -179 0
-179 -423 -246 -235 0
-179 -422 -233 -246 0
-236 -387 210 -180 246 371 -149 0
-113 -255 -148 119 -371 0
-183 -419 -248 -227 0
-187 -419 -250 -227 0
-419 -423 -235 -227 0
-421 -231 -227 -419 0
-419 -227 -415 -219 0
-419 -244 -175 -227 0
-419 -227 -420 121 0
-241 -169 -227 -419 0
-191 -419 -252 -227 0
-426 -217 -227 -419 0
-419 -418 -227 -225 0
-424 -237 -419 -227 0
-251 -189 -227 -419 0
-419 -177 -227 -245 0
-181 -247 -419 -227 0
-189 -251 -235 -423 0
-251 -189 158 159 0
-251 -189 -231 -421 0
-169 -241 -418 -225 0
-179 -225 -418 -246 0
-183 -418 -225 -248 0
-187 -418 -250 -225 0
-217 -426 -225 -418 0
-237 -424 -418 -225 0
-422 -418 -225 -233 0
-418 -225 121 -420 0
-189 -251 -418 -225 0
-173 -243 -225 -418 0
-175 -244 -418 -225 0
-185 -418 -225 -249 0
-418 -225 -181 -247 0
-285 -265 -321 -310 -115 0
-189 -251 -217 -426 0
-217 -426 -219 -415 0
-426 -217 121 -420 0
-426 -217 -421 -231 0
-217 -426 -233 -422 0
-217 -426 -235 -423 0
-237 -424 -426 -217 0
-426 -217 -252 -191 0
-426 -217 -175 -244 0
-426 -217 -181 -247 0
-426 -217 -246 -179 0
-426 -217 -173 -243 0
-426 -217 -250 -187 0
-426 -217 -245 -177 0
-426 -217 -183 -248 0
-426 -217 -249 -185 0
-426 -217 -171 -242 0
-169 -241 -424 -237 0
-424 -237 -171 -242 0
-424 -237 -243 -173 0
-424 -237 -244 -175 0
-424 -237 -245 -177 0
-424 -237 -246 -179 0
-424 -237 -181 -247 0
-424 -237 -183 -248 0
-424 -237 -249 -185 0
-424 -237 -187 -250 0
-424 -237 -252 -191 0
-237 -424 -219 -415 0
-424 -237 -420 121 0
-424 -237 -421 -231 0
-237 -424 -422 -233 0
-237 -424 -423 -235 0
93 -427 0
427 -96 0
312 -301 210 257 -48 46 -278 -182 0
275 -329 207 -318 255 0
-319 -268 -308 -288 0
-319 -315 339 -308 159 0
-158 -114 -126 -195 0
-118 -393 147 -195 0
-128 400 -118 -146 0
-122 -199 -118 -146 0
-112 -244 138 -175 -118 -146 0
-315 339 159 -313 -324 0
-313 -324 -290 -270 0
-324 -313 300 257 -270 150 -339 0
296 254 -270 -290 138 0
-274 -270 -308 138 -290 0
-311 -264 -267 -286 147 0
299 -264 -286 -177 147 -267 0
137 -114 -140 138 0
-423 -185 -235 -249 0
134 135 -393 -195 0
137 -120 -149 367 138 0
-128 -120 -149 400 0
-296 310 -31 -172 -276 29 208 256 0
-143 -116 -128 -202 0
-175 -244 -140 -121 -240 -258 377 113 114 0
-309 -320 -266 -287 -113 0
-423 -235 -183 -248 0
-183 -415 -248 -219 0
-420 -183 -248 121 0
-302 316 261 -184 162 0
-274 314 331 333 254 141 138 0
314 -280 -172 -296 212 0
314 -304 -188 259 212 0
-280 -314 -270 256 255 144 156 159 0
40 -122 -178 -199 147 0
-274 -327 -316 263 306 -331 168 0
-191 -422 -252 -233 0
333 -306 -140 141 -324 -313 0
-240 -111 -186 249 74 -254 377 -158 270 213 0
-418 -171 -225 -242 0
-274 256 144 -320 -113 -309 -331 298 0
-274 -324 150 257 -331 300 -313 0
-421 -231 -171 -242 0
-423 -171 -235 -242 0
-419 -227 -171 -242 0
-173 -423 -243 -235 0
-243 -173 121 -420 0
119 -234 -254 210 -386 246 47 -149 -111 0
-112 179 150 -181 -137 -247 0
-112 -128 400 -137 0
-296 -321 337 -310 153 0
-296 316 82 214 205 0
-313 -308 331 -324 138 0
-187 -420 -250 121 0
-187 -421 -231 -250 0
-313 -264 -286 -324 0
400 -128 -152 -122 0
153 -122 -183 -248 179 150 0
-300 -324 -313 333 -140 141 0
-423 -421 -231 -235 0
-169 -241 -235 -423 0
236 250 162 0
-169 -241 -233 -422 0
-189 -251 -233 -422 0
-415 -219 -179 -246 0
-421 -231 -179 -246 0
-169 -241 -420 121 0
-189 -251 -420 121 0
-241 -169 -231 -421 0
-189 -251 -415 -219 0
129 251 215 238 0
96 -94 -225 -370 130 322 -164 407 238 0
-241 -169 -219 -415 0
263 -104 0
308 296 0
-64 156 0
-135 -133 -124 -120 158 156 0
-124 156 -246 -126 159 -179 0
-124 -120 150 156 0
177 -124 147 156 0
-124 -146 -118 156 0
146 147 -149 -246 0
48 -179 0
-143 -116 -114 -195 0
31 116 0
339 337 46 159 -48 -323 211 257 210 0
-324 -337 -113 -255 0
31 -175 0
259 123 0
-231 259 0
259 -68 0
259 69 0
-314 -289 -269 156 259 0
-280 -292 333 -113 -272 141 156 0
186 -314 259 263 168 -167 156 0
-216 256 257 259 144 255 -48 150 156 0
182 -314 259 144 256 156 0
280 -284 159 260 259 212 168 263 -186 0
-38 147 0
324 337 0
313 301 0
260 -77 0
-288 -268 260 -269 159 0
-324 -288 -268 260 159 0
-314 -280 -289 -123 -269 156 0
143 394 0
-29 -196 0
-196 -116 -195 -114 0
-158 -116 -196 -126 0
-196 -116 -179 -126 -201 -246 0
-240 113 -256 243 -115 377 0
-232 -385 213 -115 -256 249 -260 0
142 29 0
287 276 0
-337 279 -266 321 0
-191 -124 144 -155 -252 175 0
-201 -124 -126 -155 0
-124 -116 -196 -155 0
-232 -385 -113 74 -255 270 249 213 -158 0
373 385 0
154 64 0
66 -183 0
-183 -124 159 -126 0
185 -202 159 -400 0
158 -128 -202 159 0
-280 -259 0
-327 -325 -324 -314 0
48 120 0
185 -118 -146 159 0
-177 -250 -202 -118 0
-177 -120 -118 150 0
-270 78 0
-277 337 -117 153 -266 144 147 -270 159 0
175 -120 -149 144 0
-302 -300 -184 -149 210 0
177 147 -149 -120 0
185 177 147 159 -399 0
177 -132 147 -167 0
-185 179 -249 177 147 150 0
177 147 -120 -198 0
149 -177 150 -245 0
145 38 0
311 299 0
-128 224 -176 -181 -247 -202 144 0
-122 397 -140 -114 0
-122 -199 -393 -195 0
152 397 0
153 199 0
151 55 0
-269 60 0
-55 -199 0
-234 -115 247 324 -61 -256 -386 -258 153 0
182 63 0
-38 -197 0
146 395 0
-46 150 0
178 -303 -186 0
-321 -303 337 211 0
-303 337 -323 211 0
-321 -323 -303 0
188 -303 -186 0
-303 -329 263 -324 216 0
312 300 0
274 286 0
323 336 0
-268 51 0
148 46 0
180 54 0
194 138 0
-120 -132 150 -167 0
137 392 0
-135 74 75 -133 0
-113 -240 -255 377 270 213 249 -158 0
329 342 0
342 -325 168 -324 -314 0
284 292 0
-272 105 0
-324 -288 -268 -272 0
-288 -342 -272 -268 0
337 -342 -336 257 -48 150 -272 0
-324 -292 -272 260 159 0
166 100 0
-329 188 0
-329 180 0
-329 176 0
186 -329 0
182 -329 0
178 -329 0
174 -329 0
172 -329 0
170 -329 0
-329 -342 263 0
-329 -324 -288 -268 0
-329 -318 -288 -268 0
-329 336 -48 150 -278 153 257 337 0
102 -191 0
13 -171 0
185 -171 -242 159 -167 -132 0
167 -112 168 -137 0
-177 -112 156 -245 -137 -124 0
-191 -112 -137 -252 150 -120 0
136 11 0
-219 -111 0
-264 16 0
16 254 -172 -137 0
-11 -194 0
-326 180 0
-326 176 0
-100 168 0
306 318 0
178 318 -284 263 0
-298 318 -284 100 263 -176 216 -102 0
-284 -337 -342 -269 0
-284 -342 156 -278 -314 150 -312 259 0
-342 -284 -266 321 0
-284 337 147 -267 144 -266 -342 0
354 366 0
314 302 0
157 73 0
186 81 0
75 -185 0
-64 -200 0
175 -124 -200 144 0
172 19 0
174 297 0
139 20 0
175 -128 144 -202 0
177 -128 -202 147 0
-132 -128 -167 -202 0
-146 -128 -118 -202 0
149 396 0
-46 -198 0
-124 156 -396 -198 0
-198 -120 -132 -167 0
161 400 0
-124 -128 156 -161 0
-201 -128 -126 -161 0
167 -161 -128 168 0
146 -128 147 -161 0
235 127 -202 0
235 127 -161 0
84 -187 0
160 82 0
172 -304 0
-20 -195 0
-236 -387 -254 243 -140 -111 113 0
-397 -199 -118 147 0
-397 175 -199 144 0
-397 -199 159 -126 0
182 -62 0
158 399 0
-267 42 0
22 -173 0
-173 -116 -114 -196 0
174 -27 0
348 360 0
-73 -201 0
-100 -204 0
310 298 0
-266 34 0
194 12 0
186 -80 0
188 90 0
180 -53 0
254 -15 0
349 361 0
93 -189 0
192 108 0
192 -107 0
-91 165 0
164 401 0
189 -427 -98 0
-294 -190 0
163 91 0
-91 -203 0
57 -181 0
256 -33 0
373 67 0
-293 72 0
-265 7 0
-2 135 0
-2 -193 0
134 391 0
4 -169 0
170 10 0
307 295 0
172 -18 0
170 -9 0
-271 96 0
317 305 0
176 -36 0
174 28 0
188 -89 0
258 -59 0
178 -44 0
253 -6 0
190 -98 0
262 -95 0
178 45 0
176 37 0
-296 176 -172 0
172 -320 0
172 -322 0
172 -324 0
-298 172 -176 0
-300 172 -180 0
-135 -133 -399 185 -120 -156 0
-196 -183 159 -116 -126 -248 0
-124 -400 156 -202 0
175 -124 156 144 0
167 -124 156 168 0
-124 -158 156 159 -126 0
-337 -269 -339 -270 0
-337 279 -339 -270 0
-272 159 -270 -339 -342 0
342 339 153 337 -315 159 168 0
-315 339 -313 153 337 159 0
167 -175 -244 168 0
175 -120 -176 144 150 0
175 -158 144 -126 0
175 -201 -399 144 0
175 -201 144 -126 0
175 -402 144 -204 0
-324 176 0
-324 180 0
178 -324 0
174 -324 0
170 -324 0
-313 -324 -268 -288 0
-301 -302 0
-301 176 -182 0
182 -321 0
182 -325 0
182 -327 0
-321 180 0
186 -321 0
174 -321 0
-321 -329 -318 336 150 0
-324 -292 -115 256 -272 144 0
-342 -284 -310 -278 150 -312 -266 0
-278 -336 321 -266 0
-324 -288 -268 -266 0
-216 181 -159 -114 0
-325 176 0
-325 180 0
186 -325 0
178 -325 0
174 -325 0
-120 -158 -126 150 0
-135 -133 -399 -120 185 -208 0
-135 -120 -216 -133 -399 185 0
-120 -128 400 150 0
-120 -126 -201 150 0
146 -191 -252 147 0
40 -177 0
186 -299 -178 0
337 -278 147 -336 144 -267 -266 0
-324 -337 258 56 -181 0
-319 180 0
-319 176 0
188 -319 0
-288 -337 -269 -268 0
-336 -337 -278 -269 0
-337 -292 -272 -269 0
-337 -342 -269 -272 0
-277 -314 -324 -336 -278 -280 156 0
-322 180 0
-322 176 0
186 -322 0
174 -322 0
170 -322 0
186 303 0
-324 -292 -272 -267 0
-330 180 0
-327 180 0
-320 180 0
-328 180 0
-162 -153 -205 0
192 -205 339 -284 263 159 0
-300 314 -216 -149 259 0
176 -300 -180 0
170 -300 -180 0
178 -300 -180 0
178 -323 0
-323 176 0
186 -323 0
167 -185 -249 168 0
167 -158 168 -126 0
167 -201 168 -399 0
-392 -252 168 -194 0
-185 -114 -252 168 -195 -249 0
240 105 252 -263 0
-191 171 -252 -118 138 -146 0
171 185 159 168 138 -252 0
-114 -195 159 -126 0
192 -327 0
333 192 0
192 -320 0
70 192 72 -184 65 0
-306 -304 0
309 -306 -140 -275 -192 207 0
188 309 -140 -275 207 0
309 316 -275 207 -140 0
309 -304 -140 -275 207 0
170 -302 -184 0
186 -327 0
186 -298 -176 0
-320 176 0
-327 176 0
178 -327 0
174 -327 0
170 -327 0
174 -298 -176 0
170 -298 -176 0
-330 176 0
-328 176 0
427 388 -190 -189 0
424 413 0
-294 99 0
133 2 0
256 261 159 -115 162 -31 144 259 260 156 0
-326 -339 74 -185 -270 0
-287 -266 159 -315 -270 0
-303 -327 -315 0
-122 -152 -246 -179 -124 156 0
-292 261 162 144 256 -272 0
167 -244 168 144 0
-303 -322 -327 0
339 -266 261 162 -337 144 -269 159 0
-321 -327 339 162 261 144 159 0
-327 342 -102 339 263 168 159 0
-299 -311 339 159 0
-321 -327 -303 0
-327 -310 -321 -329 0
316 314 162 261 259 0
-327 -329 263 -303 100 216 -102 0
-147 -153 -138 0
-211 -138 -147 0
-138 -162 -141 0
325 -337 -269 259 0
-321 -323 257 -310 210 -304 -48 46 0
339 -304 159 336 -180 257 0
316 333 -180 -278 -48 336 257 -140 141 150 0
-309 -308 331 333 141 138 0
-324 333 141 336 0
-327 -316 333 -322 141 0
176 333 141 0
-309 333 -288 -268 0
309 -324 207 -323 255 0
-264 -275 -333 -331 141 0
-327 -316 -268 -288 0
-327 -264 -286 -316 0
-316 -327 333 -309 141 0
-327 -322 321 -258 -121 -268 -266 0
-327 -316 -287 -266 0
-319 -327 -308 339 159 0
-397 -214 -159 -244 0
-402 -244 -167 144 0
316 336 255 -310 -48 -140 -180 141 -266 150 0
191 -114 168 -140 0
-114 -128 -202 -140 0
48 177 150 147 0
149 -175 150 -244 0
-342 -336 -272 -278 0
172 -312 -278 -267 0
-327 -322 336 -48 150 0
-304 -322 257 -278 336 150 -48 0
-298 333 141 336 150 -180 0
159 201 0
-244 -167 -252 144 -126 159 0
185 -124 -155 159 0
-276 -319 -342 -308 -272 -270 159 0
-274 176 138 -270 159 0
-331 254 -270 138 -339 0
-286 296 254 -270 138 -339 0
-314 259 -290 -270 0
-185 -244 -126 144 0
-293 -115 -268 -258 -121 0
-293 -267 -268 0
-288 321 -268 -266 0
-288 -310 -266 -268 0
-276 -288 -268 256 259 156 0
-309 333 -269 -113 141 -289 0
-264 292 -286 -318 0
-266 -264 -286 321 0
331 319 138 0
-226 -382 -167 -111 252 -263 -254 -192 0
76 -158 -111 270 -254 0
-392 -250 -194 -202 0
-179 171 183 138 -246 156 0
149 -112 150 -137 0
175 -112 -137 144 0
-173 -112 -243 179 -137 150 0
167 -242 -137 168 0
149 -242 150 -171 0
316 -298 -176 -282 162 0
326 -281 -278 -336 0
339 326 159 0
-289 -269 363 -270 159 0
319 -308 -278 -336 205 254 0
308 -300 -172 138 0
-245 -128 144 -202 147 -244 0
173 -128 -202 141 0
155 -175 156 -244 0
155 -242 156 -171 0
155 -250 -202 156 0
183 191 402 156 0
-124 -171 -152 -122 -242 156 0
171 -124 -244 156 138 144 0
-173 171 -243 156 138 -124 0
-201 -176 144 224 -399 0
-201 -177 -249 -244 -245 144 0
-392 213 -194 78 -260 326 -186 -79 -201 234 0
-173 -112 -137 177 147 -243 0
149 -173 -243 150 0
-398 -200 156 159 -249 0
372 -232 211 55 247 -182 -385 0
-385 374 249 -158 74 -232 -186 213 -79 326 125 0
-234 -121 252 -258 -263 -167 -386 0
-234 -121 248 -258 123 -386 0
-234 113 -256 -115 -386 243 -140 0
-234 -123 113 -259 243 -140 -386 0
-234 244 369 208 -386 0
-234 244 208 -121 -386 -258 115 0
-322 -292 257 -272 -323 -117 0
337 -266 159 153 -310 -313 -315 -270 0
-138 -162 -207 0
314 172 259 212 0
314 -323 212 259 -324 0
314 -297 212 -280 0
-300 314 212 0
-208 -141 -159 0
-297 -324 -309 -323 0
-301 -297 0
-321 -297 -329 0
-322 -311 -309 333 141 0
-309 333 -310 -321 141 0
-308 331 -320 -309 138 0
61 -337 211 55 -181 258 0
-210 -141 -147 0
-213 -147 -141 0
183 -122 -245 156 -152 -177 0
-293 -324 0
-336 -337 -268 -269 0
-299 -304 0
175 -122 -152 144 0
175 -114 -195 144 0
-209 -114 -126 175 159 0
-397 -199 -249 159 0
-132 -393 168 -195 0
-132 -114 168 -140 0
-303 -296 0
-274 -269 -331 -337 0
-274 -266 -331 321 0
331 337 -303 138 0
-321 138 331 337 153 -308 0
-319 -327 -308 -329 0
-296 -327 205 -326 213 0
-301 -296 0
-296 -306 0
-324 -264 -286 -275 141 0
375 250 -226 162 -382 0
-320 -333 -342 -272 0
-309 -320 162 261 -266 -270 159 0
-288 -266 -267 -268 147 0
167 159 168 -126 0
-191 -132 159 -126 0
-167 -132 159 -126 0
-122 -152 150 179 0
-191 -120 150 -252 159 -126 0
-149 -396 147 -245 0
-198 -396 -167 -252 0
-108 306 263 0
192 -321 0
-299 342 -269 -289 0
-321 -299 141 333 0
-321 333 -313 -324 141 0
-306 310 0
-324 186 0
-284 -313 -269 159 153 -270 -315 -342 0
-309 316 -320 -272 -269 0
333 -306 207 393 -324 0
-177 -245 150 -167 -252 -246 0
-115 113 -256 -192 272 243 100 252 0
-224 -381 -119 113 -140 -257 243 0
-115 -256 -382 113 243 -226 -140 0
324 -269 -331 -264 0
-381 -123 113 243 -259 -224 -140 0
-381 -224 -257 46 -260 246 210 -125 0
-224 -381 -125 -140 243 -260 113 0
-113 -255 250 -224 162 -261 -256 0
-173 -112 144 -176 -194 224 -243 0
158 177 159 147 0
-252 -250 147 -167 -202 177 0
177 -243 147 -195 -250 -202 0
191 -114 168 -195 0
-183 -244 144 -146 -245 -248 0
-114 -146 -195 -118 147 0
-118 -124 156 147 0
181 153 147 -118 0
-202 -128 147 -118 0
-132 -167 147 -118 0
-244 -176 147 -195 -118 -243 144 0
-122 -181 -118 -199 147 0
-118 -247 147 -176 144 -244 153 0
-112 -146 -194 -118 0
-185 -252 -195 -204 -243 -249 0
-232 -385 -113 159 -255 270 249 0
-113 -255 -155 64 -373 123 0
-124 -114 -140 -200 0
-114 -140 147 -118 0
-397 -152 -246 150 0
-122 -152 150 -244 144 -246 0
-323 174 0
-323 182 0
-323 170 0
-323 172 0
-323 -294 0
-323 192 0
-323 188 0
-323 -293 0
-264 -320 -331 -268 -171 -336 138 0
-288 -268 -264 -331 0
-337 132 -244 -205 56 -175 269 -192 247 -152 -147 -263 243 113 -167 -333 -140 0
-313 -337 -264 -331 -269 0
-320 -337 -269 -268 -266 150 0
-255 -115 -140 -256 162 -261 243 250 0
-180 257 255 141 -290 150 -270 0
375 250 162 -385 -232 0
-240 375 377 162 250 0
375 -381 -224 250 162 0
-226 -382 249 -158 213 374 270 73 0
-122 -181 144 -244 0
-175 -116 -250 -202 0
-192 250 252 -167 375 -260 -263 -125 100 162 0
-397 -199 -176 375 -381 162 144 0
375 250 371 162 -180 -149 246 210 0
320 333 141 0
-326 -208 333 -324 141 0
-324 333 -326 -212 141 0
-309 -326 333 -327 213 0
-327 333 -212 -326 -140 0
333 -324 -278 141 -266 0
-324 333 -266 -268 141 0
-327 -321 333 -140 162 141 261 0
-326 -339 126 0
-336 -268 -270 -339 0
-320 182 0
-320 170 0
-320 178 0
-320 -294 0
-320 188 0
-320 186 0
-320 -293 0
-324 -320 -323 255 0
-320 -324 259 144 256 156 0
314 -320 29 -280 212 208 256 -31 -321 0
-320 -333 255 0
-320 -288 -268 -267 0
-324 -264 -331 -320 -267 147 0
-320 -337 -267 144 256 -269 0
-264 -320 -177 -267 -286 147 0
331 -323 -320 -308 255 138 0
331 336 -320 150 138 0
-264 -288 -320 -268 138 0
331 -320 122 -324 153 138 0
-326 -320 -324 -315 207 0
-320 -319 -31 29 208 256 -331 0
-319 -320 -309 -324 0
-321 -320 -269 -264 -331 0
-187 -252 -195 -250 168 -243 0
146 -187 -250 147 0
149 -187 -250 150 0
-187 -244 -245 147 -176 144 -250 0
296 254 -290 205 -270 0
385 -155 123 -111 -254 0
-264 11 -254 0
-300 -319 -321 138 0
219 111 -137 0
-16 367 111 -172 0
-250 -252 168 -246 -202 150 0
336 333 339 -48 -140 141 150 159 0
-240 377 -186 249 270 -257 213 -158 -119 0
-157 -224 -381 119 -159 246 -149 210 -180 0
-264 -267 147 -177 -286 -269 0
-327 -264 -269 -286 0
-264 -266 -286 -269 0
-313 -264 -286 -269 0
-250 400 -137 -246 -179 -242 0
-244 -243 -246 144 -195 -179 0
-137 -250 -252 -202 -242 168 0
-323 -321 -324 -313 0
-319 -269 -313 -331 0
-326 -327 213 -323 -316 0
-286 254 159 363 138 -270 0
375 250 -119 -257 162 252 -192 100 -263 0
105 248 -192 123 -258 252 -167 -121 0
-123 -158 -255 159 -140 -259 249 74 270 -186 243 0
-157 123 -159 385 -155 0
-187 410 123 -250 -183 0
167 -250 -202 168 0
167 -128 168 -202 0
173 -252 -202 168 -250 141 0
-252 -244 144 -195 168 -243 0
-173 -250 -243 -202 -252 -195 168 0
-270 -321 159 138 254 -286 0
-255 243 246 -254 -257 -111 -140 210 0
-243 -252 -195 -246 168 150 0
146 -243 -195 147 0
-177 -244 -243 -195 -245 144 0
146 -173 147 -243 0
158 -243 -195 159 0
152 -199 -243 -195 0
-243 -250 -246 141 -202 150 0
-243 -250 -244 144 -202 141 0
-187 -244 -243 -195 144 -250 0
-128 -244 141 -202 -243 144 0
-185 -243 -249 -246 150 -195 0
-247 -187 -195 -250 -199 -243 0
-191 -252 -246 -243 -195 150 0
-171 -112 -243 -195 138 0
-173 -201 -244 144 -243 -249 0
-177 -243 -245 -250 141 -202 0
-243 -250 141 -245 147 -202 0
-322 182 0
-330 182 0
-319 182 0
-326 182 0
-328 182 0
-324 -294 0
-324 192 0
-324 188 0
-324 -212 -159 0
331 -324 138 210 257 46 -323 0
336 -321 -48 -278 -324 257 150 0
331 -324 -329 138 0
-319 -327 -316 -324 0
-324 -266 -140 162 261 141 255 0
339 -315 159 -324 -321 0
-324 333 207 -288 -268 0
-320 -321 -324 0
-112 224 -137 -248 -183 144 -176 0
167 -212 -114 -126 0
-167 -252 -243 159 -126 -195 0
-158 -128 -126 -202 0
-199 -397 -114 -195 0
-112 -114 -140 138 0
-122 -199 -140 -114 0
-402 -250 -167 -202 0
-132 -242 -246 150 -167 -137 0
-252 -167 159 -249 -202 -250 0
-201 -252 -167 -399 0
-112 -250 -167 -252 -202 -137 0
-137 -250 -252 -167 -202 -242 0
146 147 150 -246 0
146 -242 -194 147 0
-392 -158 -249 -194 0
-158 -393 -195 -249 0
-115 -180 -257 -336 -385 -256 210 246 46 -232 0
-393 -242 -172 16 205 -195 -194 0
-244 -393 144 -195 0
-211 -168 -159 0
-123 324 249 74 -259 -258 -152 247 270 211 56 -158 159 0
-232 -121 -258 246 46 210 -385 -257 0
-245 147 -250 -247 153 -202 0
-242 -128 -202 -137 -247 -181 0
175 -247 144 -201 -152 -249 0
-181 -247 159 -202 -250 -126 0
-320 -289 -269 259 156 0
-319 -111 -269 -289 -323 138 0
-122 -128 -202 -152 0
-122 -250 -246 -152 -202 150 0
-250 -122 -249 -202 -199 -185 159 0
-322 -308 153 337 331 138 0
331 336 213 -326 150 138 0
331 -323 -329 210 257 138 0
331 -327 82 -212 -323 257 138 0
331 -303 141 333 138 0
-324 -119 -127 -257 -264 -267 0
-311 -274 -310 -331 -266 144 -267 147 0
-311 331 -267 -308 -278 -312 147 138 0
-274 337 -331 -321 162 261 0
-397 -199 -128 -202 0
-397 -244 -199 144 0
-397 -199 -202 -250 0
-382 -226 -180 46 210 246 -257 371 0
-168 -210 -159 0
-327 -294 0
-327 -293 0
-327 -292 -272 -324 0
-327 -323 210 46 -301 0
-327 -316 -323 -321 0
-244 -250 -252 -167 -202 144 0
-185 -250 400 150 -246 -249 0
-185 -244 -249 -250 -202 144 0
-243 -250 141 -202 -242 138 0
-171 -250 144 -244 -242 -202 0
-242 -250 -152 -247 138 -202 0
-185 -137 -249 -242 -250 -202 0
-264 -266 -287 -331 -269 0
336 -326 213 -321 144 150 0
-208 -168 -159 0
-244 -126 150 -201 144 -246 0
-127 -367 -261 -254 -136 0
-330 186 0
-319 186 0
-328 186 0
-326 174 0
-326 170 0
-326 172 0
-326 178 0
-326 -294 0
-326 192 0
-326 188 0
-326 -293 0
-326 -298 207 213 -320 0
-124 -128 -202 156 0
-112 -128 -202 -137 0
-319 170 0
-319 178 0
-319 -294 0
-319 192 0
-319 -293 0
256 -319 208 29 -308 -327 -321 0
-321 172 0
-325 172 0
-330 172 0
-328 172 0
-321 170 0
-321 178 0
-321 -294 0
-321 -293 0
-321 -320 288 -337 -216 -269 150 0
-296 256 337 29 208 -31 153 -321 0
-320 -321 313 0
-323 331 29 -31 208 256 -321 138 0
-321 -329 216 100 263 -324 0
-321 -269 -286 -264 0
-330 178 0
-328 178 0
-324 -264 150 -48 257 -272 138 0
-177 -245 -172 150 -246 -242 138 0
143 -176 150 -246 144 0
-242 185 159 150 -137 -246 0
149 -183 -248 150 0
-232 -385 246 210 46 371 268 -180 -52 0
-328 174 0
314 -298 -176 212 0
-296 -324 -329 0
-296 -313 -324 -272 -267 147 0
-325 188 0
-322 188 0
-330 188 0
-328 188 0
-325 192 0
-322 192 0
-330 192 0
-328 192 0
-329 -294 0
-329 -293 0
-322 -294 0
-322 -293 0
-124 -244 -183 -200 144 0
184 293 259 212 0
-330 -293 0
-325 -294 0
-330 -294 0
-328 170 0
-256 -224 270 -113 -255 213 249 0
-127 -369 -261 -256 0
-168 -212 0
243 -255 -119 55 -257 -152 211 247 -258 -140 0
324 -264 138 147 -267 -268 -269 0
-119 115 -79 -257 -224 326 -186 249 213 125 0
-127 -261 73 -382 -226 270 249 213 -158 0
-113 -255 -260 326 73 250 249 213 -261 -158 162 0
147 -245 -249 -246 150 159 0
-247 -201 -246 -152 150 -249 0
146 147 159 -249 0
146 -158 -249 147 0
-245 159 153 -249 147 -247 0
-146 159 -247 -245 153 -249 0
-392 -201 -194 -249 0
-245 -250 -249 159 -202 147 0
-162 -212 -263 -247 -249 -252 0
-245 -249 -185 153 -247 -146 0
-250 -247 -249 -199 -202 159 0
167 159 -249 168 0
-185 -250 -202 -249 -245 147 0
-250 159 -202 -242 -249 -137 0
105 -245 216 -103 147 159 -249 -192 -252 -167 0
-185 -247 -152 -249 -246 150 0
-185 -242 -194 -146 -249 -245 0
-185 -137 -167 -252 -242 -249 0
-185 -244 -167 -252 -249 144 0
-224 -381 -257 117 -119 -226 0
-224 115 -119 -225 -226 -257 0
-113 -255 375 -152 247 162 250 211 269 -182 0
-224 -256 55 269 247 -255 211 -113 0
-113 -255 55 249 247 -279 211 270 -258 159 0
-113 -255 -257 -148 -371 0
-113 -375 -255 -261 -202 0
-113 -255 -263 -202 252 -261 100 250 -167 0
-185 -243 -249 -242 -140 138 0
-244 -250 -152 -247 -202 144 0
175 -250 144 -247 -202 -152 0
-415 -250 -202 -219 -152 -247 0
-322 -319 -289 -111 -269 0
-122 -244 -152 -243 -140 144 0
-122 -152 -249 -252 -167 -201 0
-397 -199 147 -245 0
-167 -252 -152 -225 -247 -418 0
-418 -377 -227 -225 -336 -371 -239 0
-418 -225 264 -367 -219 -239 -377 -331 0
-247 -152 -202 -225 -418 -250 0
-418 -225 144 -244 -152 -247 0
-247 -152 -225 -418 -249 -201 0
-266 261 211 -270 162 -269 144 159 0
-323 261 -115 -269 162 144 256 150 0
-319 339 -327 -212 159 0
-319 -327 -212 -316 333 141 0
-256 -224 -261 -258 250 162 -121 0
-113 -255 -257 250 246 210 375 0
-113 250 -257 -261 246 210 -255 -202 0
-113 -255 -261 -260 -201 326 249 213 250 0
115 -369 -333 -368 -227 -371 -336 -221 0
-369 -256 -254 -111 0
115 -369 -263 -336 -239 -227 -371 -167 -377 321 266 268 0
-224 115 -407 210 246 -257 371 -226 0
-422 -250 -233 -152 -247 -202 0
-212 369 73 374 125 244 -186 249 -158 0
181 153 -243 -140 -245 -146 0
-245 181 -146 -152 153 150 -246 0
168 167 -247 153 0
146 -247 147 153 0
-245 -247 147 -176 -244 144 153 0
255 -140 -266 144 141 257 -270 159 0
-322 -326 144 213 -321 -310 0
-247 -158 -244 -152 153 144 -249 0
-247 -244 144 -152 -201 153 -249 0
-244 -175 144 147 150 -245 -246 0
-375 -261 -111 -254 -202 0
-235 -375 -167 -219 -367 -199 -247 264 -252 -331 0
121 -140 243 -260 113 247 153 -125 0
-127 -261 246 210 -255 243 -257 0
-331 254 -270 138 326 0
-113 -367 -254 -136 -255 0
-327 -329 336 -312 150 0
-235 -423 -247 -167 -252 -199 0
-244 -247 -235 -152 -423 144 0
-423 -235 -167 -247 -252 -152 0
-423 -235 -242 138 -247 -199 0
-329 -288 114 207 -268 255 0
-336 -412 264 -367 -375 -227 -371 -219 -331 0
-115 -256 -371 -148 -149 -257 0
-227 -419 -167 -247 -152 -252 0
-247 -419 147 -245 -227 153 0
-247 -152 -249 -419 -201 -227 0
-419 -227 -202 -250 -247 -152 0
-418 -336 -227 -375 -235 -371 -225 0
-415 -247 -219 147 -245 153 0
-415 -247 -201 -199 -219 -249 0
-319 11 -331 0
-242 -397 -199 138 0
-392 -194 -247 -199 0
-327 333 141 -329 -309 0
-319 -315 159 168 339 342 0
115 -377 -239 -407 -224 -226 0
-377 -239 -375 -247 -181 -235 0
329 -272 -264 -331 0
-342 -336 -268 -272 0
-274 -272 -331 -342 0
-177 -158 216 -103 240 -192 -249 -245 105 -167 0
-296 -322 -329 0
-296 -322 -323 0
-306 -322 120 336 -278 210 257 0
-296 -322 -212 82 -327 0
284 -272 -268 -270 159 0
-292 321 -266 -272 0
-245 -393 147 -195 0
-185 -245 -246 150 147 -249 0
-247 153 -243 -195 -245 147 0
-245 -247 -246 150 147 153 0
-245 -246 147 -181 -247 150 0
-255 -125 319 -260 -140 -261 -254 205 -194 243 147 -172 162 -245 0
-336 -264 -268 -270 -269 138 159 0
254 -212 138 -167 -270 257 263 120 0
-243 -140 147 -245 -246 -180 150 0
-247 -202 -199 141 -250 -243 0
224 -245 -246 147 150 144 -176 0
185 -250 -202 -244 144 159 0
-382 -226 -260 -257 210 -125 246 -180 0
-115 -226 117 246 210 -257 -256 0
46 113 -180 -140 243 210 -260 246 -125 -257 0
-382 113 -226 -125 -260 243 -195 0
-382 113 -260 243 -226 -125 -140 0
-278 336 150 -264 -266 -269 -331 0
-397 -199 -167 -252 0
-250 -158 -249 -202 150 -246 0
-202 -250 150 159 -246 -249 0
-250 -247 -202 -246 -152 150 0
-252 -250 147 -202 -245 -167 0
-276 -264 321 -331 0
-250 400 150 -247 -181 -246 0
-244 -243 -247 -181 -195 144 0
-167 -103 216 -263 -242 -137 377 105 -107 -247 240 -181 0
-264 176 -267 138 0
-112 -244 -243 -176 -140 138 144 0
-247 -152 -246 -176 150 -244 144 0
-244 -167 159 -252 -249 144 0
-415 144 -219 -152 -247 -244 0
-419 -227 -244 -152 -247 144 0
-119 375 -158 270 -257 250 213 73 249 0
375 252 100 -167 -263 -111 -254 250 0
-111 250 -186 375 270 -254 249 -201 213 0
342 -321 -284 263 339 168 144 159 0
-326 -321 -310 -319 213 144 0
-329 -321 -319 -308 0
-274 256 208 29 -336 -268 -269 138 0
25 -247 207 -199 -255 -195 150 -246 -243 368 0
-242 -247 -419 -227 -199 138 0
-415 -219 -199 -247 -167 -252 0
-329 -296 208 -321 0
-247 -199 159 240 -167 105 -103 -249 -263 -107 216 0
-72 280 212 259 0
255 113 0
255 -221 0
25 23 255 -140 0
275 255 -351 -326 0
-363 -315 275 255 0
275 -264 255 -286 0
275 -278 255 -336 0
275 -288 255 -268 0
275 -292 255 -272 0
275 -329 255 -354 0
-274 275 255 -331 0
-356 275 -308 255 0
-339 -281 275 255 0
275 -323 -348 255 0
275 255 -290 -270 0
-350 -325 255 275 0
-361 -313 255 275 0
275 -289 255 -269 0
-291 -271 275 255 0
-283 -341 275 255 0
275 -349 -324 255 0
-328 -353 255 275 0
-319 275 255 -344 0
-285 -265 275 255 0
-330 -343 255 275 0
-366 275 255 -318 0
-273 -332 275 255 0
275 -342 255 -284 0
-359 -311 275 255 0
275 -362 -314 255 0
-360 275 -312 255 0
-355 -307 275 255 0
-364 -316 255 275 0
275 -287 -266 255 0
275 -358 255 -310 0
-365 -317 275 255 0
-337 279 255 275 0
275 280 255 259 0
333 -327 114 342 -212 0
-158 -402 -249 -204 0
-113 -212 249 246 270 -201 -255 -257 0
-185 -337 -372 -377 -249 121 -239 0
-113 -224 246 210 -255 -257 -256 0
-113 -117 -255 267 0
277 -289 -267 -269 0
-258 -123 122 -372 -259 0
-127 -261 -258 -372 122 0
-201 -183 -250 -248 -249 -202 0
-274 -267 277 -331 0
-392 -204 -136 -166 -168 0
-227 -371 -168 -166 -336 0
-117 267 -119 -257 0
-127 -117 -261 267 0
-376 -237 -117 267 0
-115 -117 -256 267 0
-378 -217 -117 267 0
267 -117 -111 -254 0
-129 -262 -117 267 0
-117 267 -372 121 0
-117 -231 -373 267 0
-239 -117 -377 267 0
-267 -41 0
-45 277 -267 209 0
277 370 -267 -178 209 38 0
-221 -368 -372 -235 -337 -333 121 -375 0
-282 -261 0
423 412 -261 0
88 90 82 -261 0
-221 -138 -368 -136 -333 0
-138 -136 -227 -371 -336 0
371 278 -51 257 -180 46 210 0
-157 -337 121 -159 -372 0
-157 -221 -368 -333 -159 0
-157 -371 -159 -336 -227 0
-78 76 73 125 233 0
-374 -373 -227 -233 -419 -231 0
-117 -374 267 -233 0
-142 -221 -368 -333 -144 0
-221 -368 -333 -162 -160 0
-255 -368 -258 243 -121 0
-221 -368 -162 -159 -333 0
-221 -117 -368 267 0
-25 23 221 20 113 0
-221 -368 -239 -377 -333 -375 -235 0
-301 -313 63 -60 55 279 0
-275 -333 280 259 0
261 -235 0
-117 -375 -235 267 0
261 127 0
-142 -336 -144 -227 -371 0
-339 -281 280 259 0
-78 75 0
-78 73 125 374 -186 0
80 -78 73 -260 81 0
-303 -315 81 -78 73 -281 0
281 374 213 73 260 -78 -186 0
76 233 125 73 -185 386 -186 0
-187 -337 -221 121 -333 -250 -372 -368 0
280 259 -290 -270 0
277 -267 -290 -270 0
-319 -327 -322 -308 0
-319 259 -344 280 0
-319 -267 277 -344 0
280 -360 -312 259 0
277 -360 -312 -267 0
-348 -323 280 259 0
277 -323 -267 -348 0
36 -34 29 -256 37 0
-298 -310 -276 -34 29 37 0
235 85 127 387 82 -187 -188 0
121 -160 -162 -337 -372 0
-160 -227 -162 -336 -371 0
-268 -336 46 -257 -179 0
-336 -278 259 280 0
277 -336 -278 -267 0
-50 257 -119 -48 46 0
-51 119 46 -180 371 0
-212 -257 249 -158 73 125 -227 371 246 374 0
280 -264 -286 259 0
277 -264 -286 -267 0
274 367 11 -16 -172 205 254 0
280 -288 -268 259 0
277 -267 -288 -268 0
-185 171 -124 138 -249 156 159 0
-419 -227 -249 -167 -252 159 0
267 -117 -227 -371 0
-221 -368 -372 -246 121 -333 -179 0
-252 -167 -179 159 -246 -249 0
-183 -248 -137 -242 -202 -250 0
-124 -250 -242 156 -202 138 0
-402 -137 -204 -242 0
-183 159 -242 -248 -137 -249 0
-419 -227 159 -249 -137 -242 0
-296 -16 -308 11 19 0
18 -16 11 -254 19 0
-364 -316 280 259 0
-28 297 -275 0
275 333 0
26 23 20 28 275 0
277 275 255 -267 0
-25 27 20 -255 28 0
-297 -275 28 -25 20 -309 0
26 -275 -333 20 -173 0
-300 54 -312 46 -51 0
53 -51 54 46 -257 0
26 23 20 28 -255 0
27 309 28 -275 207 0
280 259 -351 -326 0
-351 -326 277 -267 0
282 375 82 261 214 -188 0
88 90 82 282 0
-276 282 321 261 0
-358 282 261 -310 0
282 -320 261 -345 0
-275 282 -333 261 0
-357 282 -309 261 0
282 -354 261 -329 0
282 -366 261 -318 0
282 -342 261 -284 0
282 -292 261 -272 0
-273 -332 282 261 0
-285 -265 282 261 0
-355 282 -307 261 0
-330 -343 282 261 0
282 -287 -266 261 0
-362 -314 282 261 0
282 -264 261 -286 0
-360 282 -312 261 0
282 -336 -278 261 0
282 -288 261 -268 0
-359 -311 261 282 0
282 -274 261 -331 0
282 -356 -308 261 0
-351 -326 282 261 0
-363 -315 261 282 0
282 -339 261 -281 0
282 -323 -348 261 0
282 261 -290 -270 0
-350 -325 261 282 0
-361 -313 261 282 0
282 -289 261 -269 0
-291 -271 261 282 0
-283 -341 261 282 0
-365 -317 282 261 0
282 -349 261 -324 0
-328 -353 261 282 0
-319 261 282 -344 0
-337 279 261 282 0
282 280 261 259 0
275 282 261 255 0
282 277 261 -267 0
-358 -310 280 259 0
-358 -310 277 -267 0
-345 280 -320 259 0
277 -320 -267 -345 0
-87 375 127 82 -188 0
-349 -324 259 280 0
-349 -324 -267 277 0
21 195 -255 -345 0
-191 -368 -221 -231 -333 -373 -252 0
-240 377 249 374 125 -186 159 0
-373 -239 -372 -231 121 -377 0
-377 -239 -227 -371 121 -336 -372 0
-239 -377 -183 -227 -336 -248 -371 0
-284 280 259 -342 0
277 -342 -284 -267 0
-366 280 -318 259 0
-45 -277 299 0
-86 261 82 -84 0
-42 44 38 45 267 0
280 -292 259 -272 0
277 -292 -272 -267 0
354 306 -314 259 124 64 280 0
67 231 123 -155 0
155 -252 -167 156 0
-183 121 -372 -336 -371 -248 -227 0
-113 -255 -373 -259 -155 64 0
70 72 -259 64 0
-350 -325 277 -267 0
71 68 64 69 -66 0
67 231 64 -184 -183 385 123 0
-239 -377 121 -373 -420 -231 0
-377 -239 -373 -419 -231 -227 0
-72 123 0
-69 71 123 64 0
-421 -231 -242 -137 -167 -252 0
70 72 64 280 0
373 -184 259 212 64 280 0
302 325 292 329 239 65 -192 -280 -191 0
-363 -315 259 280 0
-361 -313 280 259 0
280 -289 259 -269 0
-291 -271 259 280 0
-283 -341 259 280 0
280 -276 321 259 0
280 -357 -309 259 0
280 -287 259 -266 0
-359 280 259 -311 0
-285 -265 259 280 0
-273 -332 280 259 0
-337 279 280 259 0
280 -274 259 -331 0
280 -356 -308 259 0
-72 69 0
421 410 -259 0
71 -69 72 64 -259 0
71 314 -280 72 212 0
-24 255 20 -22 0
-299 -42 45 38 -311 0
43 38 45 277 0
43 38 45 267 0
44 311 209 45 -277 0
27 25 24 -22 20 0
261 87 0
86 89 87 82 -84 0
-304 -316 82 -87 90 0
107 108 -105 100 -263 0
-306 -105 -318 108 100 0
62 59 55 60 -57 0
185 -78 -80 0
36 33 34 29 -31 0
-329 280 -354 259 0
277 -329 -354 -267 0
77 80 78 73 -75 0
-96 376 129 91 -190 0
376 262 91 -96 283 215 -190 0
-10 253 273 206 0
-7 378 2 -170 273 206 253 0
-285 277 -267 -265 0
-253 -265 -169 -332 2 0
-7 378 109 2 -170 0
-99 190 294 -93 91 0
-427 94 129 237 91 0
5 217 2 390 109 -169 -170 0
-10 7 0
-10 109 0
7 9 2 6 -4 0
-355 -307 280 259 0
-295 -273 -307 -7 2 10 0
-330 -343 259 280 0
-330 277 -267 -343 0
96 95 98 91 -93 0
99 -305 91 -317 -96 0
98 -96 91 -262 99 0
-275 -255 0
-124 -155 -252 159 -249 -167 0
-420 159 121 -137 -242 -249 0
369 -34 -176 29 0
-25 -174 368 20 0
-42 370 117 -178 38 0
61 -337 279 55 -181 258 0
-117 267 -260 -125 0
-117 -367 -219 267 0
-117 267 -258 -121 0
-109 -253 -117 267 0
-117 -123 -259 267 0
-337 277 -267 279 0
-327 -322 342 168 0
277 -276 321 -267 0
176 -267 -272 0
62 63 -258 -60 55 0
-356 277 -308 -267 0
50 53 51 46 -48 0
277 -287 -266 -267 0
-51 49 46 119 227 0
17 -274 -331 -171 254 11 0
14 219 -171 11 -172 111 0
-275 -333 277 -267 0
-361 -313 277 -267 0
15 18 16 11 -13 0
277 -339 -267 -281 0
277 -363 -315 -267 0
-183 -252 -202 -248 -250 -167 0
302 325 -191 -105 239 -280 65 329 292 0
107 104 100 105 -102 0
-357 277 -309 -267 0
-317 -365 -267 277 0
-283 -341 -267 277 0
-273 277 -332 -267 0
-328 277 -267 -353 0
-366 277 -267 -318 0
-362 -314 277 -267 0
-355 277 -307 -267 0
-316 -364 277 -267 0
-291 277 -267 -271 0
277 280 -267 259 0
44 -40 42 38 0
-69 123 373 64 -184 0
-302 72 64 -69 -314 0
-72 71 293 184 64 0
89 -87 -261 90 82 0
43 -41 0
-95 -237 328 -225 -370 322 92 -424 -164 -427 407 0
-262 -271 -189 -341 91 0
-353 -328 259 280 0
9 -7 2 -253 10 0
-365 -317 280 259 0
-248 -247 147 -245 153 156 0
-243 -245 147 -195 150 -246 -180 0
-248 -244 -245 144 147 156 0
-248 -245 147 156 -246 150 0
-113 156 321 247 -245 259 211 55 -224 270 159 -255 138 150 147 -246 0
-245 -248 147 -249 159 156 0
-243 -245 -195 -249 147 159 0
-248 -243 156 147 -245 -195 0
-177 -155 159 -245 -248 -249 0
-244 -243 -247 -152 -195 144 0
-247 -152 156 -195 -243 183 0
-243 -140 -249 138 -242 159 0
-171 -244 -242 -243 -195 144 0
-158 -243 -195 -399 0
-173 -225 -370 264 -219 -331 -243 -367 0
254 138 -269 -270 159 211 -177 -267 147 0
-177 -374 -368 -245 -333 -221 -233 0
-252 159 -249 -171 -242 -167 0
-248 -195 159 156 -249 -243 0
-123 -256 39 -259 -146 -224 267 -226 0
-118 -146 -248 -249 159 -155 0
-146 -155 -249 -248 -245 159 0
-264 -267 147 259 -331 -269 156 0
-321 -269 -267 -331 -264 147 0
155 156 -249 159 0
-248 156 150 -249 -246 159 0
-243 -158 -246 150 -195 -249 0
-243 -244 -249 159 -195 144 0
-247 -199 156 159 -248 -249 0
-249 -247 150 -246 -199 159 0
-247 -155 -124 -249 -152 159 0
-152 -247 159 -183 -248 -249 0
224 -176 -248 156 -249 144 159 0
-385 367 150 -254 -246 205 -194 -249 159 293 156 0
-226 -113 -192 -263 100 -167 252 -255 -382 0
-115 -370 -256 -146 39 267 0
-115 -256 55 247 -182 246 -148 -152 268 -258 211 0
-115 39 -146 -226 267 -256 270 249 -158 159 0
-115 -226 -257 246 210 -256 267 0
-113 -255 370 247 55 209 269 211 245 0
-123 -370 -146 267 39 -259 0
257 258 -149 -270 -48 259 153 150 156 159 0
-266 258 153 259 156 144 -270 159 0
-289 -321 -269 -270 159 0
-333 -289 255 -269 0
-266 -264 321 -331 0
-374 -373 -370 -231 -407 -233 -339 0
-113 -255 159 270 117 209 245 249 0
-248 -367 264 156 -199 -370 -136 -247 -225 0
-239 -377 -231 -373 -418 -225 0
-374 -173 -225 -370 -243 -233 0
-185 -370 -225 -249 -367 264 -219 0
-113 -255 209 267 270 245 249 159 0
-117 -367 -254 267 -136 0
245 -123 267 269 247 209 55 -259 211 0
-123 324 -259 211 267 245 -258 -182 55 247 209 -146 0
-374 -221 -368 -333 118 -370 -233 267 0
-374 -183 267 118 -233 -370 -248 0
-370 267 39 -146 -121 -258 0
-113 245 -257 246 209 267 -255 0
39 267 249 -258 213 -146 270 -186 -121 -158 -226 0
-321 -337 255 141 -269 -272 0
-321 -337 -269 261 162 168 263 0
-266 -267 147 153 -269 144 -270 159 0
254 259 138 257 156 -269 -48 150 0
254 138 -339 -269 -270 147 -267 0
254 138 257 150 122 255 153 -269 141 0
-258 -269 55 -181 0
331 -111 138 153 141 255 -269 122 -270 159 0
255 141 257 259 -48 156 150 -269 0
-333 255 153 156 159 -269 259 -270 0
255 -337 156 -270 159 -269 259 141 0
-274 339 211 -331 -321 -269 159 0
-331 254 138 141 -268 255 -269 0
-333 -337 255 -269 0
331 259 138 156 141 122 153 255 -269 0
-270 -266 -264 321 -269 138 159 0
255 259 -270 156 153 -269 141 159 0
331 -314 156 138 257 150 259 279 0
-337 279 256 259 141 255 156 0
-266 -264 -269 259 138 156 0
-331 -270 138 -313 254 -315 -269 0
337 -266 263 120 257 0
-264 -269 147 -267 138 257 150 0
254 259 150 257 147 -48 -267 156 138 0
-267 257 153 147 -270 -269 159 150 0
254 138 150 -140 141 -48 255 -270 257 159 0
255 257 156 150 -140 141 159 259 -48 -270 0
254 259 141 138 255 150 257 -48 156 0
337 321 259 258 153 257 144 -266 156 0
-336 -278 -333 255 0
-336 254 205 -315 -278 -281 -308 0
-168 -162 0
-266 255 -270 141 -267 144 147 159 0
-267 259 -266 -269 147 156 0
314 321 -270 212 255 141 -266 159 0
275 321 255 -266 0
-321 372 249 374 247 324 159 0
-168 -159 -205 0
-205 -162 -159 0
-156 -162 -159 0
-138 -156 -159 0
-372 121 -156 -159 0
-168 -156 -159 0
-141 -162 -159 0
-162 -147 -159 0
-138 -333 -221 -368 -162 0
-368 -221 -166 -168 0
-374 -221 -242 -368 -171 -333 -233 0
-113 -255 55 29 245 208 -146 209 247 159 267 211 254 138 244 -270 0
-275 -333 321 -266 0
-264 -333 141 -331 255 0
-226 267 -256 39 -146 -121 -224 -258 0
121 -337 -162 -159 -372 0
-145 -374 -147 -233 0
-320 -281 -339 -324 259 156 0
-339 -281 -333 255 0
-313 -269 -270 -290 0
-138 -162 -159 0
-121 -258 -367 -254 -136 0
188 -321 0
-420 -201 -249 -250 121 -202 0
-252 -167 -249 -420 121 159 0
-160 -374 -233 -162 0
-336 254 256 -268 -267 147 138 0
319 254 138 -268 -336 0
-333 -336 -268 255 0
321 -336 -268 -266 0
254 138 -268 147 -267 -270 150 159 0
254 -336 259 -270 138 -268 156 159 0
-267 -268 -266 -270 147 150 144 159 0
-322 -333 -270 255 -268 150 159 0
255 -266 321 141 -269 -268 150 0
-288 -333 255 -268 0
39 267 -257 -226 -119 269 247 -146 55 211 -152 0
-226 -382 159 270 -257 249 -119 0
39 -119 267 270 -146 249 -226 -257 159 0
-139 -373 -141 -231 0
74 -185 -79 125 213 326 -120 -158 -186 144 293 -149 -385 -244 374 156 0
-264 -171 150 -48 141 255 257 147 -267 138 0
-123 119 -371 -148 -259 0
119 -371 -148 -121 -258 0
-371 -111 120 -254 -257 0
-158 -243 39 -219 -146 -140 267 264 -367 -370 -249 0
-367 -162 264 -159 -219 -331 0
-224 -225 -226 -367 -244 -136 264 0
-179 -370 264 -219 -225 -246 -331 -367 0
-374 -219 -331 -181 -367 264 -247 -233 0
-374 -370 -367 -219 264 -411 -225 0
-157 -367 264 -159 -219 -331 0
-421 -231 -242 -249 -137 159 0
-418 -225 -242 159 -249 -137 0
275 255 -331 -264 0
275 -314 259 255 156 0
275 -324 156 259 255 0
-321 275 255 -324 0
-319 275 -324 -111 255 0
23 -26 368 320 -139 0
-177 402 -248 -252 156 -245 0
-185 -231 -239 -373 -377 -249 0
-124 -155 -122 -199 0
-232 123 213 -155 249 -258 -158 270 -121 0
385 -155 -258 123 -121 0
-124 -243 -140 -155 147 -245 0
-124 -155 -243 -140 -249 159 0
-248 -155 -195 -243 -249 159 0
-124 -252 -243 -140 -155 -167 0
-243 -183 -199 -248 -195 -247 0
-183 -244 -243 -248 -195 144 0
-248 -183 -246 -247 -199 150 0
-374 -337 -183 -233 -339 121 -372 -248 0
-183 -248 -243 147 -195 -245 0
-183 -248 -140 -242 -243 138 0
-158 -183 -248 -140 -243 -249 0
-113 123 159 248 156 -255 270 293 249 0
-113 -255 64 385 -259 0
-113 -255 -232 -258 55 64 247 211 -259 0
-255 -232 -258 -385 -121 243 0
-113 -232 -257 -180 46 210 -385 246 -255 0
-231 -373 -166 -168 0
-374 -410 -337 121 -372 -373 -233 -339 0
-138 -136 -231 -373 0
-382 -259 159 -123 -226 270 249 0
-314 254 -270 138 259 333 141 156 159 0
-320 -314 -266 321 207 213 259 -326 156 0
-421 -231 -242 -140 -243 138 0
75 74 -159 -162 0
-113 245 156 153 138 211 209 150 259 -246 267 144 -255 159 0
-159 -168 -138 0
275 -322 255 -270 159 0
-321 255 114 263 120 257 0
254 259 138 141 -270 159 156 255 0
-322 -324 275 255 0
-320 -326 -324 207 213 0
-303 -320 -324 207 0
-324 -319 -314 321 -266 259 156 0
224 -176 144 -183 -248 -242 138 0
-158 -244 -248 -249 144 159 156 0
-158 -244 -249 -248 144 -183 0
-207 -162 -147 0
-139 -141 -162 -147 0
-138 -162 -147 0
-370 -373 -235 -375 -407 -231 0
-191 -375 -252 -370 -235 -225 0
-374 -333 -411 -225 -221 -370 -368 0
-248 -247 156 -244 -199 144 0
-124 -247 156 -246 150 -199 0
-248 -247 -199 150 156 -246 0
-242 -248 -183 138 -247 -152 0
-247 -246 -176 144 150 -244 -199 0
-322 275 -323 255 0
-322 -325 -314 -323 0
336 331 321 -266 150 138 259 156 0
-117 -375 -261 267 -202 0
-266 -264 255 141 -267 144 147 138 0
-264 259 147 138 156 -269 153 -267 0
-274 -266 321 138 -269 -267 147 0
-252 -418 -137 -225 -167 -242 0
-418 -375 -231 -235 -225 -373 0
-138 -156 -162 0
-162 -153 -138 0
172 -327 0
-381 -232 -254 -385 -246 138 150 208 -176 144 367 0
314 321 -267 -266 147 -270 159 0
-374 -420 -233 121 -235 -375 0
-141 121 -162 -372 0
-248 -244 -195 -243 144 156 0
-244 -248 -179 -246 156 144 0
-244 -248 144 -246 156 -149 0
-244 -248 144 156 150 -246 0
-374 -410 -233 -235 -373 -339 -375 0
-321 333 -329 141 0
121 -372 -156 -154 0
-162 -156 121 -372 0
-315 333 339 159 -319 141 0
254 336 159 259 138 -270 156 150 0
174 -319 0
-322 -319 -321 0
-321 336 120 263 -337 -269 0
-243 -195 150 -246 156 -248 0
-252 -167 159 -415 -249 -219 0
-242 -124 -152 -155 -247 138 0
183 -243 -140 -242 156 138 0
170 -325 0
-232 245 -146 209 -259 -255 267 -113 64 0
-368 243 -140 -245 -246 138 -367 -255 147 -137 -254 150 0
-247 -255 -195 -199 -243 -174 150 -246 207 0
243 -255 247 55 -367 269 -140 121 246 -219 211 119 0
243 -119 -186 249 -257 213 -140 -255 270 0
-255 267 -121 245 243 -258 209 -146 0
-255 243 -257 -180 -258 246 -121 0
-255 243 -192 -258 -263 252 -121 0
-153 -162 -147 0
-162 -153 -370 -407 0
-415 -370 -254 -162 -137 -153 -225 0
-162 -153 39 -370 -146 -367 264 -137 267 0
-153 -162 -231 -373 0
-162 -153 -371 -227 0
-153 -162 -368 -221 -333 0
-153 -147 -141 0
-150 -162 -147 0
-162 -147 -156 0
-221 -368 -147 -162 -333 0
-147 -162 -227 -336 -371 0
412 -415 -261 -219 -202 0
-264 259 261 -269 162 -331 0
-264 -269 156 141 -331 255 259 0
325 259 -331 -264 0
-333 252 243 -371 -192 268 100 -263 -227 -195 -372 121 269 113 0
113 252 -263 243 -257 -140 -192 -119 100 0
-392 -243 -140 -194 0
-415 -247 -199 -140 -243 -219 0
-368 -221 -156 -162 -333 0
-183 -368 -333 -221 -248 -225 -370 0
-368 -377 -247 -333 -239 -181 -221 0
-374 -158 74 -260 -254 -111 -157 0
-234 252 -254 -111 -386 -192 100 -263 0
385 -155 -111 -259 -254 0
-226 -382 -192 100 -263 252 -125 -260 0
-367 -372 56 269 119 -371 -219 -152 0
-142 -144 -367 264 -219 -331 0
-145 -367 -147 264 -219 0
-415 -374 -267 -219 259 0
-415 -219 411 -185 270 0
-415 149 -219 150 0
224 -415 208 -247 -152 -219 -367 -176 0
115 -369 -182 56 245 -219 370 -181 -415 269 211 0
-415 -248 -245 156 -219 147 0
275 -322 259 255 0
275 -321 -284 255 0
-292 -323 259 -272 156 0
-333 -292 -272 255 0
-327 -292 156 -272 259 0
297 333 -292 -272 0
-371 -141 -139 -227 0
-321 255 114 -268 263 0
155 -415 156 -219 0
155 156 150 -246 0
-154 -367 -331 264 -156 -219 0
-247 -199 -195 140 0
-247 -199 -243 -393 -195 0
-393 -195 159 -243 -249 0
-393 -195 -246 150 0
-248 -393 -195 156 0
-123 -255 159 -259 249 270 243 0
-226 -123 -259 162 -261 250 -146 267 39 0
-415 385 -225 -219 -259 -370 0
-119 65 159 249 270 -186 -257 -155 -259 -232 0
-232 -231 252 -372 -263 246 269 268 100 -180 121 -259 0
-123 245 -257 246 267 371 209 -146 -180 -259 0
372 243 -123 113 -140 247 -259 0
372 243 247 113 -259 -123 -195 0
232 248 156 0
248 243 -179 -255 156 293 113 -259 247 269 -246 0
245 -232 -258 -155 123 209 -121 267 0
-337 -266 261 -269 255 0
-185 74 258 153 -266 144 -270 259 159 0
-266 255 144 141 -270 259 159 0
-266 255 211 -269 141 -270 159 0
-287 259 168 263 -266 0
-266 263 -267 -102 168 259 261 0
-267 255 147 141 -269 256 0
-142 250 267 -144 246 210 -261 245 -257 162 0
-142 -144 -372 121 0
-142 324 -232 247 122 -258 -182 -259 162 250 -261 -155 211 65 -144 0
-142 -167 -257 162 -252 -144 159 -249 0
244 224 29 208 0
-146 400 -250 -395 0
267 -117 270 -186 -232 -385 249 159 0
-374 74 -158 -157 -260 267 -117 0
-255 243 252 267 -167 -263 -117 100 0
252 39 100 -257 -192 -263 267 -146 -226 -119 0
177 -120 150 147 0
-120 137 150 -254 138 -172 0
-179 -120 -140 -243 0
-177 -245 -331 -367 -372 -219 121 264 0
-252 -245 -167 150 -246 147 0
-418 -225 -247 138 -199 -242 0
-418 -252 159 -167 -225 -249 0
-248 -243 -225 -418 -140 156 0
-418 -225 -247 -199 -243 -140 0
-138 -162 -225 -418 0
-141 -225 -418 -162 0
226 245 0
-370 -225 -258 -372 -367 -219 0
-397 -199 -120 -198 0
374 372 -182 121 125 213 -186 249 73 -158 211 55 326 247 324 0
250 375 324 211 55 -182 -61 162 247 372 0
-61 372 247 55 249 211 -279 374 -260 326 0
-138 -162 -372 121 0
-158 -243 121 -195 -249 -420 0
-124 -200 -199 -122 0
-373 65 -257 -155 -259 -119 0
65 39 267 -259 -257 -119 -155 -232 -226 -146 0
65 -232 -257 267 -119 -259 245 -155 0
65 -232 -119 245 209 -146 -155 -257 267 -259 0
-289 -269 159 259 -270 0
-289 255 259 -269 141 0
-117 267 -149 -148 -257 -371 0
-252 177 -247 -167 153 147 0
-247 -252 -245 -167 153 147 0
-252 -243 -195 147 168 -245 0
-167 -247 -246 -199 150 -252 0
-122 -252 150 -246 -167 -152 0
-252 -248 147 156 -167 -245 0
261 -267 259 255 141 162 0
250 213 326 162 -186 375 374 74 125 -79 249 -158 0
-266 257 -48 -270 150 144 259 159 0
-185 -373 -336 -249 -371 -227 -231 0
-173 -373 -225 -231 -243 -370 0
-173 -373 -243 -231 -372 121 0
282 261 -270 -339 0
282 -342 261 -272 0
-333 255 -270 -290 0
-191 -367 -227 264 -252 -371 -219 -331 0
-191 -373 -372 121 -231 -252 0
-191 -374 -371 -233 -227 -336 -252 0
-374 -191 -233 -252 -372 121 0
-191 121 -227 -371 -252 -336 -372 0
-374 -231 -191 -233 -373 -252 0
-374 -158 -370 -157 74 -146 -248 118 -183 267 -260 0
-183 -252 -140 -248 168 -243 0
-138 -231 -162 -373 0
-231 -373 -160 -162 0
-141 -162 -373 -231 0
-162 -373 -231 -147 0
-231 -373 -162 -150 0
-415 -373 -231 -227 -371 -219 0
-152 -247 -421 -249 -201 -231 0
-421 -231 -140 -243 -199 -247 0
115 -369 -232 -410 -407 -226 0
-201 -399 -246 150 0
-298 -296 0
-298 -304 0
-298 -301 0
-298 -299 0
-300 -298 0
-306 -298 0
-295 -298 0
-266 -264 138 255 259 0
-333 -342 -272 255 0
-247 -146 -395 153 0
-162 -205 -150 0
-211 -162 -150 0
-214 -156 -150 0
-370 -150 -407 -162 0
113 372 -150 -333 243 -140 247 -162 0
-156 -150 -162 0
-372 121 -150 -162 0
-150 -374 -233 -162 0
-368 -221 -150 -333 -162 0
-377 -239 -150 -162 0
-146 -395 159 -249 0
-247 -199 -243 -174 320 -139 -195 -249 159 0
-248 -252 -249 168 156 159 0
-252 -167 -246 -249 159 150 0
-418 -155 -249 -248 159 -225 0
-167 -252 -243 159 -195 -249 0
-247 -199 -23 -243 -249 25 159 -195 0
-243 -195 150 -246 159 -249 0
-247 -152 168 159 -249 -252 -192 0
224 -167 159 -252 -249 -176 144 0
-185 -377 -239 -249 -371 -227 0
-162 -138 -150 0
-136 -138 -374 -233 0
-138 -162 -208 0
-144 -138 0
-138 -162 -370 -407 0
-138 -162 -371 -227 -336 0
-113 -255 252 -259 64 -263 -192 100 -232 0
-247 -248 -195 156 -199 -243 0
-247 -252 -140 -243 168 153 0
167 -140 -243 168 0
-247 -419 -199 -227 -140 -243 0
-397 -199 -195 -243 0
-122 -167 -243 -199 -252 -140 0
-415 -374 -219 -162 0
-327 331 138 337 162 153 0
331 -309 333 -327 162 141 138 0
-121 267 270 -186 209 -258 245 249 213 -158 0
-211 -156 -147 0
-319 -322 205 -327 162 0
333 -267 -269 210 46 257 255 141 -48 147 0
333 -113 259 261 141 147 -267 0
333 -327 -267 259 0
-327 -322 333 -140 141 0
333 -327 393 336 0
-327 333 255 336 257 -140 141 -48 150 0
-329 333 120 336 0
333 -329 -280 314 263 141 0
-272 255 -267 259 0
-327 342 336 -278 257 168 0
-327 333 -329 -140 141 0
314 -322 -329 263 259 0
-153 -162 -141 0
-141 -150 -162 0
-214 -141 -156 0
-141 -162 -156 0
-208 -141 -162 0
-141 -144 -162 0
-407 -370 -141 -162 0
-141 -162 -219 -415 0
-141 -162 264 -219 -331 -367 0
-141 -162 -227 -371 0
333 -284 -339 -268 -270 0
168 -252 153 -247 156 -248 0
-248 -252 156 147 168 -245 0
-248 -167 -252 156 150 -246 0
-248 -252 -243 156 168 -140 0
-252 -393 -195 168 0
-181 -247 -167 -246 150 -252 0
-167 -422 -252 -247 -233 -152 0
-370 -225 -162 -156 0
-162 -156 -367 264 -219 -331 0
-211 -162 -156 0
-274 -299 -314 138 -325 261 0
-132 -248 150 -155 -167 -246 0
-183 -239 -248 -225 -370 -377 0
-183 -239 -248 -377 -331 -219 264 -367 0
407 -415 -219 118 267 0
172 259 -267 0
-267 255 259 257 156 0
-268 -257 120 0
333 -324 261 -140 162 141 -268 0
-324 -267 162 261 259 147 0
-371 -266 153 257 258 259 144 156 0
-267 261 -140 162 255 141 -269 0
282 -337 261 -269 0
261 255 259 162 -140 141 -269 0
-266 321 -181 153 259 -269 257 144 156 0
255 257 150 -270 -140 211 141 159 -185 -269 0
324 -119 -258 374 -289 -260 326 -152 249 247 211 -257 0
-375 121 -415 -219 -152 -412 -372 0
-267 261 162 259 257 150 0
261 255 259 141 -48 257 -140 150 0
113 372 247 -333 -371 243 -239 -195 -377 -227 -336 268 0
-322 -280 -289 -123 -269 0
-322 314 -327 162 261 259 0
-306 -303 0
-306 -301 0
-306 -300 0
-297 -306 0
-302 -306 0
-299 -296 0
-300 -299 0
-295 -299 0
-302 -299 0
-297 -296 0
-297 -304 0
-297 -300 0
-295 -297 0
-302 -297 0
-302 -296 0
-302 -304 0
-327 -288 259 -268 156 0
261 -267 -336 259 -268 0
-322 -323 339 159 0
167 -243 -162 -247 0
-377 -239 -247 -233 -181 -374 0
-239 -377 -141 -162 0
-201 224 -415 -126 -219 208 -176 0
-300 -303 0
-295 -303 0
-300 -301 0
-295 -301 0
-300 -296 0
-300 -304 0
-295 -300 0
-295 -304 0
-293 -328 0
-295 -296 0
254 -212 261 138 150 257 -270 159 0
-266 -268 -267 254 147 138 0
254 138 159 261 150 257 -270 0
254 138 -267 162 261 257 150 147 0
-268 -266 150 254 138 -270 159 0
255 -266 -268 150 144 141 254 138 0
-252 375 138 367 -243 -172 141 162 168 205 0
-113 -255 246 -257 153 247 -148 -258 0
-113 -255 213 264 270 147 -194 -202 -245 205 -261 159 0
-113 -267 147 247 261 246 150 159 153 249 162 -255 0
-113 -245 213 147 -194 270 -202 -250 -255 159 264 205 0
-255 244 162 159 267 -249 147 -113 208 -261 29 -256 0
-419 412 -261 -227 -202 0
-243 -400 141 -202 0
-245 -177 -250 150 -246 400 0
-244 -243 147 -195 -245 144 0
-117 250 246 -257 -261 210 267 162 0
-234 74 267 -157 -117 -261 -260 250 -158 162 0
-115 -226 39 267 -256 243 -255 -146 -140 0
-374 -412 -331 -375 -219 259 264 -367 0
-375 -171 -175 -172 321 11 115 205 -418 -219 -412 -225 208 0
-224 -381 372 324 -182 247 0
-115 -256 375 121 247 250 55 211 162 0
-250 177 -202 147 -246 150 0
-239 -377 266 -369 -181 -247 0
115 -369 -367 -256 -179 -137 -254 264 -246 0
-264 263 -267 257 168 150 138 120 147 0
-264 263 138 150 168 257 261 0
-264 -272 120 333 -268 -140 141 150 138 0
-264 263 138 -270 150 168 257 159 0
180 -264 261 138 0
-264 -333 210 -272 138 255 141 257 0
-266 -102 259 168 -264 263 -342 156 0
-266 -264 138 168 263 -270 159 0
-272 -266 168 -264 -267 138 0
-272 -266 -264 168 162 261 144 138 0
-266 -264 -140 -272 141 255 138 0
-264 256 -31 212 162 261 144 259 0
-321 -264 -267 -286 0
254 261 -267 257 147 -212 150 138 -48 82 0
-264 -171 150 -140 162 141 255 257 261 138 0
261 -267 -268 -339 150 -270 0
261 256 205 -212 138 29 116 254 150 162 257 0
-272 261 150 168 -267 120 257 147 0
172 261 -270 0
255 -269 162 159 261 -270 0
254 -272 168 261 138 -270 159 0
-264 261 153 393 138 162 -269 255 0
254 138 159 -267 162 261 147 -270 0
-264 261 213 138 162 -270 255 141 159 0
-267 255 -140 147 261 -270 159 141 0
-212 255 159 261 141 -270 -140 263 114 0
-264 261 147 141 138 -267 162 255 0
254 259 255 138 141 261 -140 162 0
259 255 162 -140 159 141 261 -270 0
-264 -272 162 138 -140 141 168 255 261 0
255 -272 213 159 -102 261 -270 -140 168 141 0
-393 -140 -202 -250 0
-179 -244 144 -246 -167 -252 0
-252 -244 144 -245 -167 -146 0
-122 -252 -167 -244 -152 144 0
213 -239 118 209 208 207 205 -377 212 211 162 0
-171 374 -377 -255 264 -140 -172 -219 213 -239 243 205 249 73 -158 125 11 0
-377 -239 -158 266 -140 208 249 -255 213 243 -79 374 -175 -260 326 0
266 -175 -377 -140 -255 211 -239 208 243 269 -181 0
74 -374 -158 -250 208 -256 270 -369 -187 0
115 -369 -187 56 269 -250 -152 -372 0
-187 -369 208 -377 -250 -239 -256 0
-327 336 -266 259 156 0
-183 -248 -243 141 -202 -250 0
-123 -256 156 -232 252 -224 124 272 -259 0
-123 -256 100 -263 -232 252 156 -224 124 -259 0
-369 -123 -259 -256 0
74 -374 -158 -123 -260 -259 0
410 -415 -155 -219 -377 -239 65 -259 0
-410 -373 -147 -153 0
385 -372 -246 -152 -179 56 269 65 123 -155 0
-147 -153 -368 -255 243 -259 385 0
-120 150 -118 147 0
-118 175 147 144 0
-177 -118 -243 -140 147 0
-146 -250 -395 -202 0
-118 -158 -126 147 0
250 -119 -202 -261 -158 249 213 73 270 -257 0
-212 -159 -150 0
-156 -159 -150 0
-212 -141 -159 0
-153 -159 -369 115 0
-239 -377 144 -126 266 -247 159 -158 162 208 153 -235 0
158 -245 147 159 0
158 159 -242 -194 0
-244 144 150 -249 -201 -246 0
-244 -250 -249 144 -202 159 0
-185 -243 141 -250 -249 -202 0
140 -195 -249 159 0
-240 -115 -186 249 159 -256 377 125 0
244 369 208 249 374 -158 326 -79 73 213 125 0
374 372 247 249 270 0
261 -319 208 -339 256 205 116 -270 0
261 -267 -269 162 -339 -270 0
-374 74 -173 -158 270 -243 -372 121 0
254 138 326 162 -339 -267 261 -270 0
-381 252 -263 -260 100 -125 -224 0
-125 119 375 -260 246 -149 210 250 162 0
-272 -267 114 257 210 46 147 141 168 255 0
-212 -153 138 243 -151 -246 162 141 207 147 0
-221 -368 -147 -153 -333 0
-153 -221 -368 -151 -333 0
-244 -243 -246 144 -195 150 0
385 123 -155 -168 -166 0
-375 -235 -168 -166 0
248 123 -155 -140 243 293 113 -168 -166 0
-153 -151 162 208 249 250 -158 270 213 -261 266 244 0
-153 -151 243 -140 246 -255 -261 250 -257 210 162 0
-381 -153 -151 250 -256 243 -224 -261 -255 -140 162 0
-153 -151 250 -257 266 210 162 -261 321 246 -369 0
-153 -151 270 249 -158 246 375 213 210 250 162 -257 0
-151 -153 -140 -261 -260 326 249 213 -255 250 243 162 0
-153 -151 213 162 -261 -158 -226 250 249 267 270 0
-153 -151 267 -226 39 270 266 -158 249 -146 -157 -234 244 208 0
-153 -151 243 -255 -146 245 162 -261 209 267 250 -140 0
-147 -141 -145 -156 0
-397 -199 -246 150 0
-224 -381 -246 150 -254 -259 156 -111 -250 -202 0
-111 244 -234 -211 -260 74 -256 -254 -158 0
-224 -381 -137 -367 100 -263 252 -111 -254 0
121 -111 55 247 -263 252 -254 211 0
-245 213 208 162 270 -111 147 -176 159 -254 144 -261 -256 0
243 -255 -254 213 -261 147 267 162 159 -260 -186 -140 -111 0
-247 -246 -176 144 -152 224 150 0
234 -158 249 73 213 0
234 -76 213 -186 -260 78 249 0
-247 -181 105 216 -244 -167 144 -252 0
-183 -239 -137 -377 264 -367 -248 0
-377 -239 -227 -371 267 407 0
-377 -239 -419 -227 -372 269 0
-255 243 247 -377 -195 -227 -371 372 -239 0
-239 -377 -247 -368 -255 -181 -140 243 0
410 -173 -239 -155 65 -243 -377 -259 0
254 -290 205 -270 150 257 0
-234 369 -246 -250 -176 -386 -202 150 144 0
-136 -138 -375 -235 0
117 225 0
-267 -266 -268 321 120 261 0
-284 321 261 -267 168 -266 0
-392 -146 -245 -194 0
-266 -256 29 -175 0
-333 255 -270 -339 0
-303 -264 -331 259 261 0
-314 259 -331 261 -316 -264 0
-266 261 254 162 -331 144 138 -270 159 0
-127 -261 153 247 -182 -257 323 -258 246 -149 -148 0
-337 263 -267 -269 259 0
-337 263 159 156 -269 -270 259 0
-337 263 259 255 156 -269 0
-342 -264 -269 153 138 141 263 122 255 0
-319 -111 207 275 -329 255 0
-322 -321 275 255 0
-319 -272 -292 -270 159 0
-239 -377 -202 -231 -261 412 -421 0
-115 -421 266 -239 -377 -231 0
-289 -267 -269 259 0
256 261 29 208 254 116 162 257 150 138 0
261 254 213 -266 162 -310 144 138 -270 159 0
-244 -176 -252 -246 150 144 -167 0
342 -264 259 168 261 162 0
39 40 -147 -150 0
278 -267 -268 261 0
38 -115 -178 -256 -370 117 0
123 371 -125 119 -52 246 156 248 -260 0
-115 -256 -194 270 -254 -261 159 -255 243 205 162 -195 0
-141 -156 -150 0
263 255 -140 141 150 168 159 -270 257 0
-266 255 -272 168 -102 -140 141 -270 159 0
342 -115 -123 -264 -140 141 255 138 156 0
256 261 168 144 162 141 255 -140 -272 0
-266 -267 114 255 168 207 147 263 0
-266 -267 162 261 147 141 255 144 0
-266 254 255 138 -270 159 0
-266 116 208 -264 29 162 141 261 255 138 0
-266 255 208 153 -264 122 141 -269 29 138 0
-266 255 -267 141 144 259 156 0
255 261 147 -267 141 257 150 0
254 -272 -270 132 255 141 138 -140 159 0
254 -267 138 141 147 -270 255 0
-264 255 153 141 159 -269 122 -270 138 0
-267 255 147 150 -269 257 -48 211 0
-266 -269 254 -267 138 0
-266 -264 211 -269 138 -270 159 0
-266 255 162 261 -140 141 -269 0
254 -327 -270 153 162 -269 138 128 159 0
192 255 -269 0
254 259 -270 138 153 159 -269 156 0
263 261 156 260 259 168 153 -269 0
-209 263 153 259 260 -269 168 159 156 0
261 -267 -270 153 162 -269 159 0
-264 147 261 153 138 162 -269 -267 0
-264 255 -269 141 138 153 -267 0
255 -269 153 -267 159 -270 0
-267 255 259 156 -269 147 0
-264 261 162 153 156 138 -269 259 0
255 -266 150 120 141 -267 -268 147 0
-272 321 -266 150 168 147 120 -267 257 0
-266 261 144 120 162 -267 -268 147 -371 0
-267 -266 261 120 162 210 257 144 147 0
159 -264 -270 -266 -267 138 0
-267 -266 168 263 147 -270 159 0
-266 -267 162 147 -270 261 144 159 0
-266 -264 162 261 -267 138 0
-267 256 261 168 162 144 263 147 0
-264 -272 138 -140 255 114 141 147 -267 0
-264 263 -267 -167 138 -270 168 0
-267 -272 122 114 -269 153 255 0
-264 261 259 138 -267 0
-264 263 162 168 -267 261 138 147 0
-267 261 255 147 168 141 -272 114 -140 0
-267 255 263 132 -140 147 114 141 -270 168 159 0
342 -264 138 168 261 147 -267 0
-212 255 147 263 159 141 114 -267 -270 0
-138 -147 -141 0
-153 -147 -144 0
-156 -153 0
-212 205 -153 138 -151 -263 162 141 147 0
-212 264 270 246 243 257 -194 263 267 -153 -151 162 141 147 0
-153 -147 -213 0
-212 -153 205 243 -151 -257 162 141 147 138 0
-153 -381 -226 -151 250 -224 -261 267 162 0
-212 -153 205 243 -151 162 141 -267 147 138 0
-208 -147 -153 0
-212 138 -270 243 246 263 162 141 147 -153 -151 0
-168 -153 -147 0
-153 -147 -250 -246 -202 0
-124 -250 -247 -199 -202 156 0
-156 -150 -147 0
-156 -147 -159 0
155 -177 -245 156 0
-244 -250 -246 144 150 -202 0
-248 -183 -250 -246 150 400 0
-248 -250 150 -246 156 -202 0
-322 -324 -117 -287 -266 0
-209 263 156 259 -181 56 153 255 393 258 168 0
182 261 -268 0
261 255 243 141 257 150 -270 159 0
261 -267 -270 257 150 159 0
-337 -327 159 257 -270 -269 0
255 -212 -270 261 159 257 150 141 0
-267 257 -270 159 168 147 263 150 0
339 261 159 -267 257 0
263 261 257 -270 -48 150 168 159 0
140 -250 -202 141 0
-115 252 -256 -257 246 -149 -148 -180 -263 0
257 263 159 -266 168 150 -270 0
-264 259 263 -269 138 156 0
254 -111 259 156 126 -102 138 -270 168 263 0
-264 263 -140 141 259 255 138 156 0
-327 -264 -269 -272 138 0
255 156 159 259 -140 -270 263 132 141 0
-377 231 -259 293 156 272 0
-264 -377 126 -270 -224 -181 259 153 239 211 247 0
-250 -120 243 -254 113 -153 -219 -202 150 138 0
-250 -202 -124 -246 156 150 0
-252 -243 168 -250 -202 141 0
-250 -243 -202 -195 159 -126 0
-243 -250 -202 159 141 -249 0
-256 -115 73 -382 -226 270 249 213 -158 0
127 -115 -256 -375 0
-419 -227 224 -176 208 -128 -202 0
-209 -141 -156 0
155 -242 156 -194 0
173 -124 156 141 0
-377 -264 212 263 -266 259 0
-326 -272 -140 259 141 156 168 -102 213 255 0
-266 263 259 -102 156 -270 168 159 0
256 261 259 208 29 -31 -319 162 212 205 0
186 -264 259 0
-266 259 -264 -371 -267 138 -227 0
-264 -266 144 138 -267 147 259 0
255 259 256 144 -269 141 156 0
-266 159 138 254 -270 156 259 0
-319 259 261 212 162 -270 205 159 0
342 -266 168 -264 -102 138 259 156 0
-327 254 -140 141 259 255 138 0
318 -264 261 259 168 0
-266 180 -270 159 0
256 261 144 257 162 210 150 -270 159 0
-319 -270 138 213 150 261 257 159 0
255 -267 150 -268 120 147 393 -270 159 0
255 -267 -270 288 393 150 159 0
288 -267 -270 150 261 159 0
336 -267 -270 120 168 263 150 257 159 0
261 256 162 263 168 144 -270 159 0
331 337 339 138 159 0
-319 342 339 -167 263 168 159 0
-319 339 -212 261 263 159 0
331 333 339 141 138 159 0
-319 339 261 -272 168 205 159 0
-327 339 336 257 159 0
-319 -327 205 339 159 0
-264 -326 -267 -212 261 147 138 0
342 333 -326 263 213 -102 -167 168 -140 141 0
342 333 -318 -326 213 168 141 0
-326 -327 207 333 213 -140 0
-319 -327 336 257 150 138 0
255 -266 -268 120 321 -272 0
-331 -327 254 -268 -267 150 138 0
-321 255 162 150 -268 261 141 0
331 -329 -140 141 -269 255 138 0
333 -329 393 56 207 258 -181 -324 153 0
331 -329 333 -140 141 138 0
314 -329 212 337 153 263 259 0
-284 321 257 -266 168 261 0
333 -284 261 -140 162 141 -266 0
-120 171 138 150 -219 -254 -172 0
-319 -303 168 -272 159 261 126 0
-274 -327 -269 -270 -337 138 159 0
-244 -243 -254 -140 -242 144 138 0
-296 -329 333 141 0
-296 -327 205 342 168 0
-319 314 -280 212 342 0
-322 -325 -284 342 263 259 0
318 -322 -284 339 263 168 159 0
-327 -322 -272 168 -140 141 255 0
-327 308 -323 138 0
-157 -141 -159 -153 0
-141 -153 -150 0
-168 -141 219 147 264 0
-141 -168 219 147 244 0
-141 -168 219 147 375 0
-111 244 249 213 -201 -254 270 369 208 0
-115 -256 270 247 249 269 153 159 0
-123 -226 39 267 -259 -146 270 249 159 0
267 -232 -155 -259 -141 -117 270 -139 65 249 159 0
-250 267 270 400 150 -226 -385 249 -232 -246 159 213 0
-244 250 -259 144 -254 -261 150 -246 -123 138 0
375 -123 250 -259 100 156 252 272 0
-123 269 55 247 250 375 -259 211 0
-123 250 -158 249 375 -259 -79 270 213 0
-264 259 261 263 0
259 254 261 -270 212 138 0
-266 254 162 261 144 138 -270 159 0
-266 255 159 -270 162 261 0
263 261 168 257 -270 -149 150 0
255 259 156 256 162 261 0
254 261 162 153 138 -270 -269 0
254 261 138 -140 141 150 257 255 162 0
261 -270 -269 162 257 -371 211 159 0
254 261 -48 -269 153 257 138 150 0
261 -270 211 257 -269 210 0
219 248 55 147 261 247 -152 -254 211 -226 162 257 -48 150 156 0
256 261 116 -264 162 153 144 -269 138 0
261 150 -269 -246 138 -264 162 -267 0
261 259 156 -266 -269 162 0
-267 261 259 -269 0
-239 -377 -247 -244 -245 -250 0
261 -266 147 -254 -195 162 210 156 153 -255 219 150 246 -247 0
-248 -250 -199 -202 156 -247 0
-370 -247 -157 150 -152 -246 267 -158 74 -374 270 0
219 269 247 -254 -158 -157 270 249 153 0
-111 159 249 270 246 -254 -257 0
-141 -168 -152 270 247 249 269 268 246 0
337 342 -264 -267 168 138 0
254 259 255 -267 138 156 0
186 -267 255 0
-267 -266 144 162 156 259 147 261 0
-267 259 156 -266 257 150 147 0
324 -264 -272 -267 -269 138 0
-381 -224 -111 269 -254 247 0
-141 -168 121 269 247 250 375 0
115 -369 267 -155 -248 407 159 -249 0
-141 -168 246 65 -155 -232 -385 249 268 270 0
-232 -385 -111 243 -254 -195 113 0
-232 375 -254 -259 250 162 -111 0
-381 -224 -257 -111 246 -254 0
-266 213 150 -202 -254 147 153 156 246 219 -250 159 0
-123 -373 -371 -259 -148 -257 -155 65 0
-115 -387 -148 -256 -236 -257 246 0
115 -369 -333 -148 -221 -368 -257 -371 -149 0
-123 -258 247 -259 246 55 -148 211 -257 0
-141 -168 247 250 -261 269 -257 246 0
-127 -224 -381 -257 -261 246 0
-264 263 393 -269 255 141 207 138 0
-175 -244 -368 74 -260 411 -157 -185 -158 -221 0
244 224 -176 0
113 -224 -166 -168 243 -381 -140 0
-126 224 150 144 -201 -246 0
-115 250 162 213 -256 -260 73 326 -290 249 -369 -261 -158 0
-111 159 -192 -254 -247 -263 375 168 153 250 -249 0
-385 372 -246 -202 -182 156 211 55 150 -250 -152 0
250 375 247 -258 372 324 0
-415 -375 -367 -261 -372 121 -152 -202 269 -219 0
115 -369 252 375 -336 268 -167 -180 100 -227 -179 -149 250 -263 210 0
254 138 -270 159 150 257 -149 255 0
-127 -381 -224 205 -261 159 -194 -254 -246 150 -249 0
-127 -381 252 -192 -256 -224 -263 -261 0
-127 113 -140 243 -224 -261 -381 0
254 -127 -269 -270 -48 211 150 138 257 159 0
255 -266 264 250 219 0
-266 -139 -195 219 -259 250 159 153 156 264 147 0
375 250 153 -111 269 247 -254 0
115 -369 250 122 -249 -269 -158 -412 0
-248 324 150 -246 -61 211 -199 156 -258 -111 -195 113 -254 0
-234 74 -158 -157 100 252 -263 -192 -260 -255 -113 0
-412 -226 -158 250 -407 249 74 125 -411 162 213 0
-168 -141 -158 -260 -375 -261 74 -374 0
74 -374 -146 270 -246 -157 156 -248 118 -158 -370 150 267 0
74 -374 267 -157 -179 -370 270 -246 -158 0
74 -374 -258 -158 -121 -260 -157 0
-234 -113 100 -263 -386 -192 132 252 -255 0
-221 -244 -175 410 -259 -155 -368 65 0
-123 -375 -261 -259 -202 0
-123 -387 246 -149 -236 -259 119 210 0
-159 -148 -147 -150 0
263 261 -270 257 -371 0
-187 -225 -371 -250 -227 -370 0
-371 257 259 153 -270 258 156 0
269 -372 -148 -371 -149 -257 -166 -168 0
-322 -289 213 159 -269 -270 0
-337 263 -269 261 156 259 0
-117 375 -263 250 252 267 0
-236 -387 -257 -254 246 -111 0
250 -412 -224 244 -158 249 369 125 -411 -260 326 -79 162 73 213 208 0
115 -375 250 162 213 244 73 -158 249 -224 208 -411 125 -79 -412 0
244 369 73 -158 -260 249 326 -79 208 -121 -258 213 0
-373 -239 269 -377 -372 -231 0
372 147 55 370 150 211 -182 -250 -202 -152 -246 0
370 245 372 247 -182 55 -181 211 0
-244 -146 144 -395 0
-232 219 -226 249 -258 153 147 -152 -266 247 56 -155 -181 -157 159 -254 156 0
-224 115 -225 -226 -111 -254 0
-226 -382 246 -257 -254 -111 0
162 250 -226 249 246 150 219 247 -254 213 159 153 270 147 0
219 -226 257 150 -152 -270 250 247 -254 159 153 147 162 0
-232 -226 219 -254 156 247 270 -155 249 153 147 159 246 150 0
-407 -410 -158 249 74 -232 -370 -79 -411 125 -186 326 213 0
-183 -248 -250 -245 -202 147 0
-244 -250 144 -183 -248 -202 0
-248 -250 -202 -152 -247 -183 0
115 -369 407 147 159 -172 205 -249 -219 -137 375 250 267 0
115 -369 -185 -249 407 267 0
-319 -336 261 156 259 162 205 -268 0
-207 -168 -150 0
-207 -144 -168 0
-153 -216 -150 0
113 -369 243 -239 -140 -368 -377 266 0
-167 -250 -247 -263 270 -233 249 100 264 367 138 -152 -202 0
-314 -302 -272 255 0
-226 -407 -410 -232 125 249 -158 74 -411 213 0
-232 -410 213 326 249 74 -158 125 162 -412 -411 -79 250 0
-382 -226 -410 73 270 213 -158 -232 249 -411 0
412 -244 -261 -263 -175 -377 -202 0
115 -369 -231 -257 -180 -158 -421 -126 150 375 250 0
282 -315 -326 261 -125 0
-239 -377 -142 -144 0
250 245 -113 -146 -255 267 209 375 0
-177 -239 -377 -245 0
-322 -342 257 156 -149 150 -272 259 0
-342 256 -272 255 -269 0
-319 -272 -322 -117 -292 0
-398 -200 144 -244 0
-147 -144 -168 0
-162 -144 -147 0
-153 -159 -147 0
-168 -147 -159 0
-159 -210 -147 0
-147 -156 -168 0
-150 -168 -147 0
-153 -147 -150 0
182 254 138 -270 0
-144 -213 -162 0
115 -369 -195 -249 159 250 -248 375 -155 113 0
-191 -244 156 -248 -252 144 0
-244 -176 -248 -249 144 156 159 0
-250 -248 -249 156 -202 159 0
-248 -245 -202 147 156 -250 0
115 -369 -195 264 113 250 -137 205 -172 -249 159 375 -331 -219 0
115 -369 -201 250 -331 -249 113 111 375 123 -259 0
-124 -250 -249 -202 159 156 0
235 -261 -166 246 -257 -168 -249 159 0
375 267 150 -246 147 -255 250 -244 144 -140 0
-272 255 257 120 -269 141 0
-267 263 -269 156 147 153 168 259 0
-264 259 122 138 255 -269 0
255 261 150 -269 141 257 162 -140 -48 0
255 -266 -269 257 141 150 0
-269 261 159 156 162 259 -270 153 0
232 -244 -246 144 150 156 0
232 -245 147 -247 153 156 0
60 372 269 247 -61 156 147 150 370 55 211 -246 -385 0
-153 -168 -150 0
-153 -159 -150 0
-168 -159 -150 0
-144 -162 -159 0
255 -266 257 263 0
255 -371 -140 141 259 257 -270 156 0
255 -266 150 162 257 261 393 0
-266 257 46 153 210 -185 -269 -270 159 0
-264 259 261 138 150 156 257 0
261 -269 156 -183 257 120 259 65 -155 162 0
-324 261 162 120 259 257 156 0
-323 257 211 -269 261 -371 -270 0
254 259 -268 -270 138 150 159 0
259 -266 138 -264 -268 150 156 0
-266 -268 -264 336 138 259 156 0
-224 -381 246 371 0
-168 -141 -381 -257 269 -224 246 -372 0
-412 -381 -407 -224 -226 250 162 0
-141 -213 -153 0
-239 -377 -245 -153 -250 -244 0
-153 -168 -159 0
-153 -159 -210 0
-124 -250 156 -202 -244 144 0
182 261 259 156 0
-167 -250 -252 -202 -247 -152 0
263 212 -270 159 -290 259 0
-337 263 257 259 -269 124 0
186 255 156 259 0
-369 -256 -270 -167 138 -111 259 156 263 168 0
-369 -256 168 126 -270 -167 -102 138 263 259 -111 156 0
-266 250 259 147 156 -168 264 219 0
243 -266 159 219 259 250 147 -195 264 156 150 0
-371 -266 153 144 259 -181 257 -269 156 0
-266 256 -268 259 156 261 162 150 0
372 371 55 211 119 246 -257 247 0
-327 -278 -266 261 259 0
183 -199 156 -122 0
314 337 -272 153 255 156 0
-239 -377 255 250 -224 208 147 -245 162 254 138 -264 0
-375 -412 -407 -226 -410 -232 0
-412 -407 -158 -226 73 -375 249 -411 213 0
-369 -381 -412 250 162 0
342 339 156 259 263 261 159 0
-239 -235 -157 -423 -377 -158 411 74 270 0
158 -250 159 -202 0
-138 -136 -250 65 210 -232 246 267 -247 -257 153 -155 -202 147 -259 0
-166 -250 -245 147 -168 -153 0
-202 -250 150 147 -246 -245 0
-381 -176 138 -254 144 -250 -202 -245 147 319 367 0
-158 -250 -399 -202 0
115 -369 213 -168 208 247 270 -243 55 -152 211 269 -250 0
-113 -255 -245 144 147 -261 -244 270 -202 159 -176 0
-138 -136 213 211 270 243 162 207 212 216 147 210 0
-138 -136 207 213 212 210 211 270 -243 168 250 162 147 0
245 -257 246 -144 249 267 159 -142 210 270 0
-232 -144 210 -257 -158 -259 249 -142 -155 246 -234 270 65 159 -186 0
-138 -136 212 -255 210 213 -257 246 216 243 211 -195 252 270 162 147 0
-138 -136 156 -261 147 -247 270 153 267 213 -248 249 162 0
-382 -232 -226 65 270 -139 -141 159 249 -155 -259 0
-123 -250 -245 211 -152 -202 -259 147 159 270 269 247 0
74 407 -158 121 267 -372 411 270 0
-138 -136 243 270 249 252 -263 -158 100 -255 213 -140 0
-138 -136 -261 243 249 270 -255 -140 213 250 162 0
-138 -136 252 270 147 255 168 162 -257 213 243 211 207 210 212 0
-138 -136 249 -255 270 243 -140 213 -257 246 210 0
-138 -136 269 -255 -140 270 211 247 243 -158 249 159 0
-138 -136 213 100 249 -226 270 267 252 -158 -263 -192 0
-138 -136 210 252 153 270 213 -261 -257 100 272 249 -247 162 0
-138 -136 147 212 246 252 -155 -148 -232 -263 -226 270 211 249 74 -158 213 100 -269 0
-261 269 168 270 -202 219 -137 -252 159 247 -254 0
-138 -136 -261 -252 -157 -158 -234 -247 74 153 270 -259 156 162 168 0
-127 -375 162 270 -263 147 168 -261 159 150 213 -269 156 -252 141 -246 0
-138 -136 153 162 255 252 212 270 -257 210 -247 213 243 147 207 168 0
-138 -136 246 210 -259 156 267 249 -234 159 -247 270 -257 147 153 0
-138 -136 147 162 -261 270 213 267 249 -259 -247 153 156 0
-111 -245 -202 375 -254 270 153 147 159 -247 0
-158 -257 -166 -155 -259 246 210 159 46 -168 249 248 270 -234 0
374 -382 125 -257 371 -247 246 210 46 159 153 147 270 0
-138 -136 252 153 -261 162 210 270 156 -257 -247 213 147 100 255 0
-136 -138 270 156 249 261 168 257 113 -247 -140 162 147 -252 150 153 159 0
-138 -136 -236 -387 100 74 270 252 -263 213 249 -158 0
-138 -136 147 257 210 207 162 270 243 211 252 -263 255 213 168 212 0
-138 -136 243 207 252 216 162 213 210 147 257 270 212 211 0
-136 -138 270 243 252 207 162 210 216 213 257 211 147 212 -255 0
-138 -136 250 -161 269 249 270 -261 247 213 162 0
-138 -136 -161 -258 249 -375 -157 270 -261 247 0
-142 -269 248 245 249 211 257 -48 270 -146 141 243 -144 213 150 212 -155 147 -140 0
-138 -136 -243 210 246 270 261 211 249 213 156 252 269 168 141 247 147 -167 0
-138 -136 250 -261 213 270 -226 -382 249 162 0
-147 -153 270 250 -261 0
-136 -138 247 -232 65 245 -146 -155 162 261 -140 64 246 -259 210 207 147 255 211 0
-138 -136 270 248 -157 -261 -259 74 156 -158 -234 162 250 0
-176 -245 144 138 147 -123 -219 -256 -259 -261 162 0
-138 -136 250 64 -155 -255 -140 162 -232 -261 -259 243 0
-123 -261 162 -259 -256 -224 250 0
-224 -123 -257 246 -256 -148 -259 0
-127 -232 246 -259 -155 -257 -261 65 150 0
-234 74 250 -261 -260 -123 -259 -158 162 0
-234 74 244 -158 -123 208 -259 -260 -256 0
-138 -136 -259 147 211 -368 -252 120 257 -270 168 141 -250 150 -202 156 159 0
-113 -267 -269 257 385 0
-267 261 162 257 -269 150 147 211 0
-272 -267 147 257 168 -269 120 150 153 0
-267 147 211 259 -269 156 150 257 0
263 -269 168 150 156 -48 257 259 153 0
257 -272 210 211 -48 150 153 168 159 213 -270 216 -269 0
254 258 138 211 257 -48 -270 150 159 0
-252 372 211 147 246 150 -113 156 159 153 247 -267 168 257 -255 162 0
-266 263 210 -264 257 138 0
254 259 168 263 257 156 138 0
263 -115 257 168 -167 256 259 -48 150 -31 156 0
255 -266 257 259 0
263 255 168 259 -368 156 257 0
255 -266 257 141 -269 0
-321 255 -270 263 168 159 0
261 263 255 156 141 162 259 0
255 -266 257 321 -140 261 141 150 0
-321 255 -267 150 -268 141 147 0
-136 -138 211 247 255 -261 162 270 -263 156 100 -257 246 210 213 147 252 0
-138 -136 -252 168 255 210 246 270 162 -140 249 213 207 212 147 211 0
254 -321 255 -270 159 138 0
-185 74 -263 247 270 100 211 -158 -259 269 -231 252 213 410 0
-234 74 100 -158 252 -263 -117 267 -260 -157 0
-138 -136 156 -261 -259 74 -252 -234 -158 267 -386 168 -157 407 162 -260 0
372 123 248 -125 -260 247 55 211 156 0
-142 -144 -158 -259 100 272 156 252 248 -155 -260 326 213 -290 249 0
-266 -256 144 0
-224 -137 205 -252 -261 -256 -167 162 -245 147 -367 -254 0
-224 -256 -254 -111 269 247 0
-256 127 153 -252 -367 205 168 -160 144 -192 264 -331 -247 -219 0
-250 244 270 -158 -202 -219 205 -256 208 249 -199 -367 213 -247 73 0
-138 -136 210 267 246 159 249 270 -257 245 0
-371 -267 -144 -148 249 141 -158 -240 255 259 213 -142 377 212 0
243 261 -144 -140 212 270 -142 246 210 213 141 248 249 162 -269 0
-191 121 -412 -372 250 162 270 -252 249 -158 213 269 0
261 156 263 150 249 212 147 270 153 159 168 -255 211 -113 -246 162 0
-113 156 263 261 -269 249 212 270 147 153 159 168 -255 -246 150 162 0
-136 -138 210 270 168 211 249 -255 261 -252 120 -113 -140 162 257 147 156 159 0
65 -144 270 -142 -257 245 -269 -155 261 -232 246 159 210 249 -234 0
-147 -153 264 270 -249 -250 0
256 264 -250 270 -147 -153 0
375 367 -194 -249 162 159 -245 205 147 0
137 -183 -248 138 367 0
-250 141 270 113 -254 -199 -333 159 138 -247 -202 0
-127 -224 159 -254 -140 113 -249 -261 -256 138 0
-138 -136 100 -257 252 -148 247 246 211 269 -263 0
-138 -136 210 -250 246 -269 -263 -249 255 159 100 252 156 -202 -257 147 0
-127 -261 270 -263 252 100 249 -201 213 0
375 250 100 252 -263 377 0
-377 -252 0
-252 -248 -202 -250 156 168 0
-252 -248 -250 156 -202 -167 0
-138 -136 246 -252 210 162 250 168 -140 213 270 -243 212 147 207 211 0
-138 -136 -263 147 -252 211 150 243 213 -246 162 141 168 270 156 0
-219 -252 -192 159 -249 205 -367 -199 -166 -247 0
-191 -369 205 -254 -367 -252 -137 -256 0
-112 -171 -252 168 0
266 -175 -140 -239 247 208 243 269 211 -377 -255 0
-261 -168 266 321 -153 267 250 -369 245 0
-138 -136 -257 -252 -259 210 246 267 249 159 -234 168 156 147 270 0
-257 -138 -136 269 211 -252 267 168 -119 -148 147 -261 162 0
-111 -261 -249 -147 -263 -254 159 -144 -192 -247 0
-248 -243 -202 156 141 -250 0
-138 -136 -248 243 156 -270 -257 213 211 210 207 147 216 162 0
-138 -136 207 243 252 156 -246 150 216 213 -248 -270 147 162 211 0
-138 -136 211 -261 257 162 -248 156 141 147 216 -270 213 -243 210 0
-244 -248 -250 -202 144 156 0
-337 -377 -183 -239 121 -372 -248 0
167 -248 168 156 0
-415 -248 -243 156 141 -219 0
115 -369 -250 270 -168 -158 74 -243 208 -374 -233 0
-142 -374 257 162 258 -368 -373 250 -144 -155 249 -140 -149 -48 150 141 213 211 212 243 65 -261 0
-153 -147 270 -374 -233 0
-374 -231 -233 -373 -339 -239 -377 0
150 -321 -269 -268 -264 138 0
-266 -267 -268 -264 321 147 138 0
-321 -268 138 254 -267 147 0
-288 -269 259 156 -268 0
-321 263 -267 168 -268 120 147 0
-321 263 -336 -268 168 162 261 0
-321 255 254 141 144 -268 138 0
254 -288 259 138 -268 0
-268 -264 138 -321 150 259 156 0
192 255 -268 0
252 207 123 246 150 210 159 213 168 -121 147 141 156 261 -258 0
-138 -136 123 64 -155 -373 0
-127 -261 -180 150 123 268 -52 -249 -199 371 -247 159 156 210 0
385 123 -155 -125 -260 0
-374 73 -221 -372 -157 121 -333 125 -158 -368 0
115 -368 -257 244 374 208 249 -221 -158 246 -149 159 -148 270 0
-185 74 100 270 -79 213 -158 252 -191 -221 -263 -368 -385 -232 101 0
245 -113 -272 -255 162 -146 250 267 257 168 209 150 211 210 247 153 0
-113 -255 -372 -258 0
-113 -255 -372 121 0
-113 -255 207 132 270 -136 249 211 213 212 263 -138 -246 168 162 147 150 0
-261 269 144 247 -263 -111 -202 168 -381 153 -254 0
-127 -180 249 270 -227 246 -261 159 0
375 213 263 259 156 162 -121 -258 270 168 147 141 267 159 257 0
248 252 100 -119 -263 -259 156 -257 0
-370 -225 -371 121 -336 -420 -227 0
-367 -372 121 264 -371 -219 -227 -331 0
-221 -368 -148 268 121 -371 -333 -372 0
227 119 -148 0
-185 74 -367 270 205 -240 159 -157 -219 121 377 -420 -372 0
113 -224 243 -256 55 247 -166 211 -168 -140 -258 0
-32 -115 0
-381 -115 0
-115 -367 -256 -137 -254 0
410 -175 65 -372 -259 -258 -244 -155 0
-245 -244 -249 159 147 144 0
-173 -387 124 -372 -259 121 -236 -243 0
377 239 0
-138 -136 -263 -192 -232 64 100 377 123 252 0
-127 -261 377 -201 -240 270 249 213 0
377 252 -192 -385 100 -263 -232 0
377 -240 -385 -232 0
-113 -240 270 -255 249 377 -201 213 0
-319 -288 259 -268 0
-372 -247 0
-239 -377 -139 -141 0
-239 -377 -136 -138 0
191 -377 -239 0
-239 -377 -246 0
-377 -239 207 208 205 243 212 -118 211 213 -158 -264 162 147 0
115 -369 -239 -377 0
-207 -239 -377 -245 162 0
-224 266 269 -377 -173 247 -243 -239 0
-173 -377 121 -243 -372 -239 0
-239 -377 -151 -153 0
-145 -239 -147 -377 0
-377 -239 74 -157 270 -173 -243 411 -158 0
372 -232 147 -202 -250 -245 -385 -182 153 0
-245 -244 144 147 -250 -202 0
372 371 150 147 -245 -257 153 119 232 156 0
-113 -168 147 -255 -176 -245 -381 -261 153 -247 270 0
-245 -400 147 -202 0
-245 -243 -195 -420 147 121 0
115 -245 138 319 -250 -254 -121 -258 144 -202 367 147 0
-245 147 -252 -249 216 159 -167 100 0
-168 -153 113 -249 -245 115 -333 0
-138 -136 -255 -259 243 64 65 -146 245 -140 -155 267 209 -232 0
-138 -136 -232 250 247 -259 -146 246 162 245 243 64 -155 122 -255 211 65 210 147 -195 0
-138 -136 -375 -261 250 -270 -155 -232 245 -161 65 257 150 247 211 212 147 162 159 0
-138 -136 213 150 207 65 247 263 255 156 243 147 216 -232 211 -246 -270 162 -155 0
-138 -136 65 267 245 -259 -257 246 210 -146 -232 209 -155 0
-138 -136 65 -259 -257 -232 246 -255 210 -195 -155 64 243 0
-138 -136 -268 -232 -261 162 -270 -247 -263 168 -243 156 153 159 147 141 65 0
245 -232 213 -144 243 141 211 147 -140 -269 -257 156 246 -142 249 -155 65 210 0
-117 252 100 -232 -138 -155 267 -259 -263 -136 65 0
-138 -136 267 -250 -232 65 -155 -259 -246 156 150 269 247 -202 147 211 0
-138 -136 246 -155 -232 -259 247 210 65 211 269 -257 0
-136 -138 245 212 -139 -232 -155 65 213 -263 252 -247 246 210 267 -257 153 168 162 261 147 0
-138 -136 210 -261 250 65 -232 -257 246 -155 162 -259 0
-183 -124 156 -202 -250 0
-138 -136 -140 -255 243 247 162 250 -155 249 -161 270 64 -232 213 245 209 -158 211 0
-138 -136 245 261 212 168 -146 -155 270 252 247 -152 211 -232 -246 213 -158 162 249 147 0
-234 74 -261 -144 250 270 -142 -232 -385 -157 162 -158 0
-385 -232 -140 150 141 -258 -121 210 246 213 159 252 243 -270 168 0
-142 -144 211 -140 65 147 -232 -155 -270 -269 159 246 156 243 210 245 141 -257 0
-138 -136 247 -232 250 -161 -258 -261 -182 211 162 -385 0
175 -231 -368 138 -259 111 121 -372 113 -232 144 243 0
-232 -180 371 268 -257 -52 -410 -407 -226 46 246 210 0
-136 -138 -161 100 252 250 -232 -261 -263 -385 162 0
123 -127 -382 -226 -232 -261 0
369 -410 208 -79 73 -411 326 -232 244 -224 125 249 213 -158 0
-232 -385 246 -257 -254 -111 0
-117 267 -247 270 -199 -250 -385 -202 156 159 0
375 -385 162 141 156 -243 150 -246 0
-138 -136 -140 162 250 243 -232 -261 -255 -385 0
-381 74 144 -385 156 326 -79 367 374 -254 -176 213 -158 125 138 249 0
-327 -266 213 321 257 -270 0
-266 321 -339 -270 0
255 -264 -266 141 321 -270 138 159 0
-266 255 -270 156 141 321 259 159 0
321 -266 -333 255 0
321 -266 -270 162 261 255 -140 141 159 0
-266 321 -269 255 -270 141 159 0
-337 321 -266 -269 0
-212 -257 321 147 -247 246 243 0
-212 153 147 246 -247 243 321 0
-264 -266 321 138 259 -270 156 159 0
275 -276 321 255 0
-327 333 259 261 -140 -272 141 156 207 162 0
333 261 393 207 141 56 -181 153 -272 258 0
333 255 168 216 -167 141 213 -181 56 243 153 159 207 263 -270 258 0
-327 333 -269 -289 -113 -140 141 207 0
333 -321 -326 213 141 144 0
410 -231 -250 123 -243 -259 141 -202 -183 0
-239 -377 -410 -373 0
115 -412 250 -410 -373 -224 162 0
115 -412 250 -224 -232 -410 162 0
115 -369 -149 -368 246 -410 -221 210 46 -232 -257 0
115 -369 -421 267 -231 407 0
-421 -420 -231 121 0
-147 -421 123 -168 385 0
-421 -231 -147 -159 0
410 -421 -183 65 -202 -242 -155 -137 123 -250 0
-123 -261 250 252 -259 272 100 156 -202 0
175 -333 -368 -128 -221 121 177 -176 -372 0
-234 -171 205 11 367 242 -172 -386 0
-138 -136 -255 250 243 -257 162 375 246 -140 210 0
-138 -136 -257 213 -270 259 263 162 247 216 -243 210 212 147 211 141 0
-138 -136 -140 211 267 -255 -261 162 243 -246 147 150 269 0
-136 -138 162 243 267 -250 -259 168 156 -195 -263 368 147 0
-142 250 -261 -144 243 246 210 -255 -257 -140 162 0
-142 250 270 -158 -261 -257 249 213 -144 246 210 162 0
-138 -136 162 147 212 210 -257 211 -270 213 207 216 0
-138 -136 162 216 212 207 210 147 211 213 243 368 0
-138 -136 113 243 150 -255 249 -250 270 168 263 -246 159 -140 153 -202 147 156 0
-138 -136 -48 168 -250 211 -140 -255 159 -252 270 249 -202 257 212 147 150 243 0
-138 -136 212 -249 216 246 210 -252 -255 -195 211 243 162 147 159 0
221 -23 243 0
-275 -321 -333 -267 147 259 156 0
-153 -367 -219 -168 0
-219 -244 -147 144 -367 -247 -162 264 205 0
-250 -415 -219 -167 -252 -202 0
-153 -147 264 -367 -219 0
-153 -151 205 -367 -219 0
-244 -415 144 -250 -219 -202 0
-322 -290 -270 259 -117 0
-276 321 -290 -270 0
-381 -153 -140 -224 113 243 -333 -168 0
270 -224 213 -255 243 -153 -256 249 -381 -140 -168 0
115 -224 -192 -254 -256 121 252 269 -367 205 247 -263 -137 0
-168 -166 -153 -137 -224 250 -256 -367 -261 -254 0
-224 -256 246 -267 162 243 250 -140 259 -261 -127 0
-374 74 -202 -137 -158 -242 -140 270 113 243 -157 -381 -224 -250 0
-123 -259 -247 -256 -261 -167 385 -152 162 272 -224 0
74 -234 115 -224 246 -166 -257 -158 244 -157 -260 -168 208 0
244 -226 29 -255 115 -113 -382 208 0
115 -369 249 247 208 -219 -367 -157 270 269 -256 244 -158 -254 205 121 11 -233 0
-123 -234 270 244 -259 208 162 159 -158 247 39 249 -226 -146 250 147 0
-127 -261 249 -256 270 159 244 0
-333 -368 -221 210 -235 121 -372 268 -180 -236 -179 -149 0
115 -369 -117 267 0
-136 -138 115 -369 0
115 -369 122 -256 267 -219 -367 269 205 245 0
115 -369 -147 -168 0
115 -369 -139 -141 0
115 -369 -173 269 -243 -372 0
-153 -147 -369 115 0
115 -369 -127 -261 0
115 -369 -147 -145 0
115 -369 -256 208 -250 -374 -202 270 -158 -233 74 -137 -242 0
115 -369 -226 162 -382 410 -421 -412 270 123 213 -231 0
115 -369 -232 -410 213 326 249 -158 -79 -411 125 0
-369 115 -111 -254 0
115 -369 -255 -113 0
259 263 168 -264 -331 257 336 0
-321 -264 -331 141 144 255 259 156 0
-138 -136 213 269 250 249 270 375 247 162 0
-138 -136 123 250 156 248 162 375 0
-136 -138 100 250 246 -257 252 210 375 -263 162 0
-138 -136 247 375 -146 269 -226 250 39 267 162 0
375 -243 141 159 -121 213 270 267 162 -258 147 0
375 -121 156 55 207 -257 159 -249 246 150 168 213 162 -258 252 247 211 210 141 -272 147 0
-382 375 162 -252 153 168 147 -247 0
250 375 372 247 269 0
-138 -136 250 168 375 156 -247 153 123 162 -252 0
375 -195 100 213 159 -269 150 250 -263 252 270 156 147 -246 162 0
-142 375 162 -144 -226 267 -259 -232 250 0
-423 -235 -245 -252 147 -167 0
-235 -138 -375 -168 0
-423 410 -155 65 -372 -259 -258 -235 0
-147 -153 -261 -235 -375 0
-138 -136 -261 100 250 -263 252 247 -161 211 269 0
-138 -136 -261 100 250 252 -161 -226 -263 162 267 0
-284 -342 -278 -48 -270 46 210 211 337 257 159 0
-342 -272 -48 -269 257 261 150 210 162 0
-191 412 -261 -202 -372 -252 -258 0
-191 407 267 121 -252 -372 0
-187 -219 270 411 -367 -250 -158 -157 74 0
74 121 -175 -157 411 -372 270 -158 -244 0
-418 -225 -372 270 411 121 -157 -158 74 0
254 -270 -321 -339 -269 138 0
-321 254 -339 138 259 -270 156 0
-422 410 -155 -258 -233 -372 65 -259 0
333 -292 -270 -272 213 159 0
-138 -136 207 162 243 213 216 211 210 212 147 -257 -270 0
-117 267 -263 100 -377 0
-138 -144 -257 270 -243 -250 -142 267 0
-160 121 269 267 -225 245 -162 247 0
-138 -136 270 245 269 267 213 249 211 209 370 247 0
-142 372 246 247 -144 -257 -125 211 -260 -148 0
-142 372 247 -148 -272 -259 270 147 -144 207 156 211 168 261 255 -157 0
-127 -261 -157 -201 372 247 270 249 0
372 375 270 -202 247 156 -157 55 267 -385 159 211 -117 0
-117 267 246 -146 -148 -226 39 247 -152 -257 55 372 211 0
372 -111 246 247 -254 153 -257 0
-138 -136 -250 -202 211 -258 252 255 324 -182 247 246 -270 100 150 372 156 -263 159 141 147 0
-258 -121 156 -385 270 -202 -250 246 -257 46 210 159 0
147 162 -180 261 168 141 207 246 159 -148 263 -121 213 156 259 -258 0
61 121 0
-138 -136 -420 121 0
-420 -145 121 -147 0
-145 -147 121 -372 0
-162 121 -147 -372 0
-372 121 -337 -166 -168 0
-138 -136 -337 -372 121 0
-372 -141 121 -139 0
-123 121 -372 -259 0
245 267 247 -111 -254 121 269 0
-244 -420 -167 121 144 -252 0
-245 -167 -202 -252 269 121 147 -261 247 -111 -254 0
-420 74 411 -157 270 121 0
146 -252 -167 147 0
372 371 -381 -250 -257 -202 -279 119 150 247 144 0
-142 -144 -140 267 209 270 249 -158 213 -255 243 245 0
-142 252 -140 -144 -263 243 100 -158 270 -246 213 249 -255 0
-142 248 -155 -259 -144 249 -255 270 243 -140 159 156 0
-370 267 -173 -243 121 -372 0
-370 -225 -173 -243 -372 121 0
-58 -121 56 0
-287 -321 0
-123 245 -259 255 -146 -270 209 247 267 55 250 211 159 162 0
-138 -136 147 212 -155 -146 250 245 210 270 74 211 249 248 213 -269 162 246 -158 0
375 250 246 210 119 -258 -121 162 0
-261 -226 267 -168 250 246 150 -257 -166 0
-113 -255 162 250 -146 -270 247 147 153 245 156 213 211 259 159 0
-142 -255 243 -372 -144 -258 55 250 162 -261 0
-142 248 -259 247 156 -261 -144 250 -258 324 -182 162 211 0
-142 39 -146 -261 -258 -144 267 -226 250 55 162 -372 0
375 250 -201 -258 -121 249 270 213 162 0
-138 -136 250 246 -261 243 -255 -257 210 -140 162 0
-138 -136 211 147 250 213 243 207 162 216 210 212 0
-138 -136 -155 -259 247 64 250 -261 269 211 -232 162 0
-138 -168 270 -224 -256 244 159 -261 208 249 250 0
-138 -136 375 247 -146 269 159 -123 -268 -270 39 -226 211 162 250 0
-138 -136 245 -261 122 269 247 -146 267 211 250 162 0
-138 -136 -261 -382 -257 250 150 246 162 -226 0
-123 263 257 243 156 141 -368 212 168 150 159 213 210 -270 0
-138 -136 261 162 168 156 -270 213 211 210 -243 147 207 257 0
-138 -136 212 159 243 210 147 211 -368 259 -270 257 141 -250 -202 216 0
263 168 150 257 -270 159 259 156 0
261 257 259 162 156 -270 0
263 261 -270 213 162 159 259 156 0
-321 263 257 120 168 -270 159 0
-321 257 156 259 210 -270 159 0
-321 -371 156 259 257 -270 159 0
-138 -136 -232 257 -155 255 -259 -270 252 210 -226 65 393 213 168 147 156 0
-123 -270 141 255 150 -224 -259 254 246 159 138 0
261 263 259 156 162 -269 168 153 0
263 255 -269 141 393 56 -181 153 207 156 259 168 0
-138 -136 212 162 122 -146 247 259 250 141 255 -261 245 246 147 210 211 0
-138 -136 212 247 246 -146 255 122 -140 141 245 250 210 259 147 162 211 0
261 -269 257 259 120 162 156 0
-136 -138 259 249 252 246 270 168 -269 153 -148 213 212 162 261 0
261 -267 162 263 259 147 168 156 0
-324 -342 -272 255 259 141 156 0
263 -269 159 153 216 259 156 168 -270 0
-321 263 259 168 -267 147 -102 156 0
-138 -136 -372 407 259 -270 153 -375 267 213 162 156 0
-267 263 259 147 156 168 150 257 0
263 -121 -368 257 259 156 243 168 -258 0
-266 144 153 156 259 210 -269 257 0
-138 -136 153 122 -161 210 -372 -375 263 168 259 212 257 0
-321 -337 263 -269 168 259 156 0
-321 255 156 159 144 -270 141 259 0
-321 255 141 144 -267 259 -31 147 156 0
-321 254 259 138 -270 156 159 0
255 259 168 263 256 -167 144 0
-264 -321 259 138 141 255 156 0
-266 331 255 141 321 138 259 156 0
-138 -136 252 210 -192 -146 -155 -249 -257 267 100 246 -263 -248 159 0
-186 -261 156 162 213 -144 -142 -199 210 -259 270 -247 -257 0
-127 -381 -257 -254 159 150 -176 144 -249 -261 205 -194 0
-138 -136 -250 156 -255 243 -247 153 267 -202 -140 147 -259 0
-138 -136 -232 243 -368 -258 -259 247 64 -255 211 -140 0
-138 -136 245 267 -257 -140 246 -148 -255 209 243 0
-142 -255 248 -140 -263 -259 -144 243 100 156 252 -246 0
-142 -255 -140 -226 267 250 -261 -144 162 243 0
-374 -221 -368 -333 -233 121 -337 -372 0
256 209 -232 245 -155 261 156 -123 65 162 246 150 144 -373 -269 267 -146 0
261 256 -268 259 156 150 162 0
-242 -245 150 138 -172 147 -246 0
-138 -168 -247 -249 159 -246 0
261 -138 -246 -142 -144 0
-138 -144 -142 263 -246 0
-138 -136 147 150 -246 270 243 -255 -249 252 213 207 212 216 211 162 0
-138 -136 270 -243 212 207 211 213 -246 250 168 162 147 150 0
-121 -263 252 -258 250 -246 375 100 0
-138 -136 269 -261 267 150 247 -246 270 249 211 147 162 213 0
-138 -136 -261 267 249 270 -246 156 150 -259 213 162 147 0
375 267 -121 147 162 150 159 270 213 -258 -246 0
-261 -117 -260 162 267 159 213 -246 150 -248 156 0
123 147 159 213 -246 270 267 150 -121 -258 156 0
245 123 150 156 267 159 -246 270 -258 -121 209 0
-138 -136 213 147 -252 -140 270 255 156 168 141 150 -269 -263 162 -246 0
121 407 -372 267 -179 -246 0
-123 252 247 -263 -259 -246 -258 55 211 0
123 105 156 150 -167 -192 270 -246 -258 159 213 -121 248 0
370 372 55 247 150 123 -260 -125 147 156 211 -246 0
-207 -250 147 247 372 162 -263 -245 0
-201 -245 -399 147 -250 -202 0
-138 -136 -181 -269 257 -250 243 -368 -270 216 213 211 210 212 -202 141 147 0
-138 -136 147 -113 252 -382 269 -255 243 -263 216 211 -202 -140 -250 0
-142 -252 141 267 -259 -243 147 210 -257 168 246 156 -144 0
-252 -244 -245 144 -167 147 0
-267 -385 147 -115 150 -232 -270 -269 144 159 153 246 0
-248 261 147 270 168 -121 -258 249 159 246 150 141 207 213 -252 156 210 0
243 -121 141 257 393 -270 120 147 168 245 252 210 150 159 213 -140 -258 0
-247 -382 153 -195 -243 156 147 -385 0
-392 -245 147 -194 0
123 252 -382 -261 150 147 100 156 -127 -263 -246 0
-138 -136 212 263 216 213 207 162 211 -257 -270 147 210 0
-247 -244 159 153 144 -249 0
-138 -136 211 245 65 247 246 -261 162 -161 248 -249 213 -146 168 250 210 252 212 147 207 -155 0
-138 -136 -249 211 247 -146 267 159 156 269 -261 162 -248 0
-138 -136 -249 -257 246 -261 -259 156 159 267 147 162 210 0
-158 267 121 -249 407 -372 -202 -250 0
-266 -264 321 -267 141 255 147 138 0
-321 256 -31 -264 141 144 -267 255 147 138 0
-264 -272 210 150 257 138 -269 0
263 -321 147 168 -267 -264 0
263 -321 -264 168 -270 159 0
-377 -239 124 -187 138 -140 208 -173 -264 212 249 -175 211 213 74 -243 -232 -269 -158 162 0
321 256 208 29 46 210 257 -264 -269 138 0
-264 -272 257 255 138 -368 0
-321 -264 -102 263 168 259 156 0
-144 -147 -213 0
-242 -367 0
-321 269 -259 156 -162 -219 -367 0
-250 -256 -219 205 270 213 -247 159 144 208 -367 -199 -202 -152 0
-412 -375 -219 -370 -367 267 205 -225 0
-145 250 -261 -367 -254 -137 -147 162 -224 -256 0
-321 120 254 263 -268 138 0
-321 254 257 120 263 0
-127 -261 246 159 -382 56 150 138 -181 -226 -270 -149 211 258 254 0
254 -321 159 -268 150 138 -270 0
-138 -156 -147 0
255 -269 122 207 168 -270 263 243 141 153 213 159 216 0
-138 -136 213 -257 -270 -247 207 168 -243 153 210 263 212 147 162 0
261 263 168 156 257 259 0
-138 -136 162 -269 267 261 245 -232 -155 -146 168 246 263 210 212 209 153 65 0
-138 -136 261 207 212 252 245 -146 65 -155 247 267 210 211 213 263 -232 168 162 246 147 0
-138 -136 -246 263 132 -255 168 211 243 213 150 207 212 147 162 -249 0
-138 -136 255 -261 156 -263 -246 270 213 100 141 252 150 147 162 -269 0
-138 -144 -261 252 -142 0
-138 -136 272 -148 100 213 270 252 249 -149 -257 246 0
-138 -136 -140 252 216 -263 247 211 -255 269 243 0
141 207 -258 252 210 -250 159 150 213 123 -121 246 168 147 -202 156 0
-382 267 100 270 -246 -263 213 249 -158 73 252 -226 0
-225 -226 269 -367 121 -192 100 264 -219 -331 -372 205 267 252 -263 0
250 252 -261 -111 -263 -254 -202 0
-377 -263 100 -192 -111 -254 0
115 -266 0
180 -267 -266 0
-266 255 261 -270 159 0
192 261 -268 0
-141 -168 0
-168 -141 -261 270 246 119 249 -375 -158 268 0
-141 -168 -267 147 219 0
-141 -168 270 123 249 268 -244 119 374 0
-168 -141 -270 267 -269 -375 -244 138 254 -226 0
-141 -168 245 -375 -146 267 -270 -244 138 254 209 -264 0
-141 -168 246 -261 -256 -236 -257 -369 0
-168 -141 247 250 269 -219 -367 -261 0
-141 -168 372 247 246 -257 -219 -367 0
-168 -141 -245 147 -270 0
-141 -168 -158 259 -117 39 249 244 246 -146 -370 261 267 0
-168 -141 267 147 -166 0
-168 -141 123 147 -166 0
-141 -168 -256 -259 -155 -224 -232 -257 246 0
-168 -141 247 270 147 0
-141 -168 247 147 261 0
-141 -168 250 123 -176 -256 -261 -155 -246 248 -254 367 0
-168 -141 -375 267 -256 -226 -224 -261 0
-141 -168 246 -256 270 -176 268 -247 367 -254 -172 -257 -180 0
-205 -168 -150 0
-224 -381 113 -159 -257 -180 246 243 -168 -140 0
-138 -168 -150 0
-141 -168 -270 -370 -266 39 250 -226 267 246 -146 -123 -139 -261 0
370 -243 -250 147 -61 60 -168 153 372 269 0
-168 -144 -159 0
-153 -144 -168 0
-138 -168 -153 0
-141 -168 -224 246 249 270 -269 -257 -232 65 261 -242 0
-205 -168 -153 0
-250 -245 -166 -259 255 -168 147 -269 -254 111 0
-138 259 144 -168 -267 -256 -249 -250 147 0
-141 -168 249 -266 -259 245 248 -155 246 -115 261 147 -385 0
-232 -256 39 -146 -385 -224 -166 267 -168 -226 0
-259 -168 -155 -140 -166 159 -255 249 270 243 248 0
-420 121 -166 -168 0
-153 -168 -256 113 -255 -140 39 -146 -224 267 243 -226 0
-321 261 -269 156 162 259 0
261 256 162 257 -269 -48 144 150 0
-321 263 210 261 46 -268 120 162 168 0
261 -144 -259 246 -247 255 153 168 156 213 210 207 -142 147 -272 0
-232 261 -144 65 245 -155 -269 246 156 213 211 210 -270 -142 162 0
261 -269 159 162 216 153 213 -270 263 168 0
-267 261 263 147 -270 0
-138 -136 245 -232 249 247 -152 -158 263 -146 -155 261 168 213 211 212 147 162 270 0
-272 261 -336 -268 168 259 156 0
-272 261 -48 150 162 257 168 153 -269 0
-138 -136 -267 -263 -155 248 247 252 65 261 156 168 213 211 210 207 147 162 246 0
-342 -267 162 261 -272 -269 0
-321 255 -270 261 162 141 144 159 0
261 -272 -181 255 258 393 162 207 153 56 0
-113 257 156 -252 249 120 261 -269 -255 270 159 168 150 211 210 147 162 0
-272 255 168 261 141 257 120 150 0
336 263 168 257 259 156 261 0
180 261 259 156 0
-138 -333 243 372 247 -162 113 0
-138 -136 248 210 -259 -257 159 270 -234 249 246 156 0
-208 -243 -232 247 267 -259 269 -261 252 246 -138 147 162 65 0
-138 -136 -257 246 209 -148 245 267 211 247 269 0
-138 -136 269 -257 -148 246 249 211 247 270 -157 0
-138 -136 -158 209 269 247 249 -146 211 245 270 213 267 0
-270 -138 -208 147 0
-138 -136 207 -202 147 243 210 247 211 213 -368 212 257 -270 -250 216 0
-138 -136 -259 -270 211 243 368 257 162 213 156 210 216 147 207 -250 0
-138 -136 216 263 -269 153 407 -270 213 147 162 -375 0
-138 -136 -248 -263 -257 -270 168 156 -243 213 211 210 207 147 247 162 0
-138 -136 207 246 156 123 247 269 -261 248 211 252 210 168 162 147 213 0
-136 -138 100 -263 -255 -226 -382 252 243 -140 0
-138 -136 247 246 -148 243 -140 269 -255 -257 211 0
-138 -144 -255 -142 372 0
-138 -144 252 -142 269 0
-138 -144 -263 -142 372 0
-138 259 -168 -250 144 -269 -267 147 -256 0
-138 -136 247 211 -263 156 162 216 213 210 -257 -270 147 207 -243 0
-138 -136 210 252 269 257 -259 -255 -140 -261 243 156 247 216 213 211 -368 -202 147 -270 0
-138 -136 147 247 269 -368 -270 243 -155 120 -259 64 159 245 -232 150 211 141 -268 0
-138 -136 147 122 -148 162 269 246 156 -255 243 -261 -252 168 159 247 250 211 -140 -146 245 0
-138 -136 162 -261 147 269 267 141 -257 247 246 -243 211 210 0
-136 -138 -263 247 -146 267 269 252 100 -182 211 245 0
-136 -138 -261 -161 252 -263 247 -375 211 -258 0
-138 -136 -263 -257 252 -148 -375 -261 246 -161 100 0
-138 -136 100 -263 -161 250 -375 252 -255 243 -140 -261 -202 0
-138 -136 -261 -268 -263 -123 -270 -161 252 100 159 -375 -202 -226 0
-208 269 -138 147 0
-138 -136 210 141 -243 246 162 -263 156 168 248 213 -257 -270 147 211 247 0
-224 -123 324 -259 -258 -256 -182 247 0
-123 -267 162 -259 147 -224 -261 -269 250 150 211 246 0
-123 65 -155 246 -148 -257 -195 -259 113 243 0
115 -369 -259 -123 0
245 -123 211 209 267 159 -199 -249 269 -250 -202 -259 0
-267 -266 211 147 -269 257 150 0
-274 -111 -267 -269 -289 138 0
-321 -289 259 -269 156 0
-321 156 -269 138 -264 259 0
-321 255 211 -269 141 -270 159 0
-321 -264 29 208 153 141 -269 255 138 0
-321 -337 159 -269 -270 259 156 0
-321 -371 153 -185 -269 257 -270 159 0
-321 -267 257 -371 -119 -269 147 0
-141 -168 -166 147 -269 0
-321 255 156 259 -269 141 0
-321 255 141 257 -371 -119 -269 0
-321 -264 -269 -331 259 156 0
-276 -289 321 -269 0
-267 -269 -270 -272 153 168 147 159 0
339 255 159 141 207 -140 -167 153 -269 213 168 216 263 0
-267 -269 -270 -272 168 159 -339 147 0
-267 -272 393 -269 255 122 153 0
-267 261 168 162 -272 -269 147 0
-138 -136 159 246 249 147 211 270 210 248 168 -267 -269 263 -234 156 0
180 -269 259 0
-321 263 -269 120 257 0
-321 254 211 -269 138 -270 159 0
331 263 -326 -269 138 0
-321 156 259 -337 150 -269 -268 0
-321 -267 255 -269 141 147 0
-266 -267 147 -269 261 0
180 -267 261 0
180 -138 250 74 248 -267 -158 270 -157 -136 -234 162 212 0
-153 -162 -159 0
-144 -153 -159 0
-162 -397 -159 -244 0
-144 -147 -159 0
210 259 138 -267 162 -261 -242 250 243 -140 -247 -256 -224 246 -199 0
-242 250 -256 -412 246 210 127 138 -199 -369 -257 162 -247 0
-252 -137 -420 -167 121 -242 0
-420 121 -137 -242 -202 -250 0
-242 -140 -224 243 -412 250 -255 138 162 -261 -256 -199 -247 0
-420 121 -242 -171 0
-171 -337 -333 -242 -221 121 -368 -372 0
115 35 0
-162 -153 115 -369 0
175 -112 -194 144 0
-132 175 -231 168 -118 -421 0
175 -421 375 123 144 372 -202 -152 121 410 269 0
252 -226 -144 -255 267 -142 100 -263 243 -192 -140 0
-144 -153 -162 0
-124 -243 -250 156 141 -202 0
-124 -132 156 240 -167 -67 0
-377 -127 -263 -261 0
-162 -153 -342 -377 -239 0
-370 -239 -377 -407 0
-120 171 -254 138 150 -172 0
-112 -120 138 -149 367 0
-136 -138 156 245 255 -260 -161 269 -146 -375 247 211 -125 162 141 209 248 0
155 -243 141 156 0
331 256 -324 29 208 -31 -321 138 0
-329 -319 208 -321 0
256 -31 275 208 29 -111 -319 -321 255 0
-320 -319 208 29 -143 -321 0
-320 -319 -321 29 -31 208 0
-321 255 -319 159 141 144 -270 -31 -111 0
-319 -275 -333 -321 259 156 0
-327 -321 259 255 -333 144 0
-319 -321 205 -266 162 261 -267 0
-321 269 -162 159 0
-321 -162 -267 257 147 150 156 159 0
-321 -337 147 -269 -267 263 168 0
-321 -267 263 168 -270 147 159 0
-321 -267 263 168 255 147 0
-264 -321 156 -331 147 259 -267 0
-156 -321 -263 -162 -247 0
339 -212 -153 -319 -321 0
-321 263 -270 -212 120 257 0
-321 258 259 -270 211 156 159 0
-321 147 -269 -267 259 156 0
275 -321 156 255 147 259 -267 0
-321 -371 259 153 258 257 156 0
-321 -267 259 -268 150 147 156 0
-268 -321 331 -212 138 -270 0
331 -268 29 208 -272 -321 138 0
-321 254 159 147 138 -270 -267 0
-264 -321 150 -278 138 259 156 0
-268 -321 -270 159 331 138 0
-185 -407 100 -321 -411 270 245 267 -263 -221 249 -368 -233 213 -158 252 0
-272 -321 -264 255 0
-264 -321 138 -267 147 259 156 0
-264 -321 -278 -336 138 259 156 0
-321 -278 156 261 -336 259 162 0
-336 -278 144 -267 261 -321 0
-321 -281 159 255 259 156 -333 0
410 407 -259 267 0
410 65 257 -144 162 -142 -155 159 150 -375 407 156 -270 0
-418 410 65 -258 -372 -259 -155 -225 0
-171 410 -155 -258 -372 -259 65 -242 0
171 -152 -122 138 0
171 -199 -122 138 0
-407 -370 -162 -159 0
-420 -392 121 -194 0
-418 -250 -225 -243 -202 141 0
-226 250 -111 -261 -225 -254 162 0
-244 -252 249 213 -202 -201 -111 -254 -261 270 -167 144 0
275 255 -323 -326 -125 213 0
-244 -201 144 -399 0
-244 -418 144 -202 -225 -250 0
105 -247 -152 216 -244 -167 144 -252 0
149 -247 -199 150 0
213 209 208 212 205 211 -377 162 207 264 -239 0
-138 -136 -127 -258 -232 211 250 -261 123 -382 168 -252 147 162 64 0
372 -250 247 55 -119 -259 -155 -232 -257 -202 211 156 0
-138 -136 211 -375 -140 243 -252 -270 -255 168 159 -368 156 210 147 162 257 0
-138 -136 162 243 259 65 245 -146 -155 -181 246 -183 -140 156 -148 -255 261 211 147 247 0
-136 -138 245 207 156 -155 -146 247 210 246 -263 252 248 65 211 168 162 213 147 261 0
-153 -151 -235 -375 0
-123 255 159 -259 122 -270 -375 -372 162 0
-127 -382 -257 -261 246 150 -226 -149 0
342 -278 257 153 -269 162 261 -48 150 168 0
-324 -342 -272 -278 259 257 -48 150 156 210 212 0
342 336 168 257 153 -269 -48 261 -278 150 0
342 263 156 259 261 -267 168 162 0
342 339 260 263 147 -269 159 153 168 213 216 -267 0
342 339 337 153 263 168 159 0
342 -267 261 147 168 -269 162 0
-276 -337 279 321 0
-420 412 -261 121 -202 0
412 267 -261 -372 407 121 -202 0
-418 -225 -261 -202 -372 -258 412 0
-247 -152 -201 -399 0
-382 375 -226 144 -152 -247 162 -381 0
-421 410 115 -226 -231 208 123 -122 -412 -152 162 -407 0
-377 -192 -181 100 -263 -247 39 407 -146 267 0
-138 -136 56 213 -158 156 207 248 246 249 261 269 74 -155 270 168 -252 247 211 210 -152 147 162 -267 0
-127 -370 246 150 147 -261 -372 252 -148 100 259 -263 211 212 156 0
407 -239 39 -146 -377 -171 -242 267 0
267 407 121 -420 0
-418 38 322 -407 0
115 -369 -246 0
115 -369 150 162 -269 -246 0
115 -369 125 162 205 168 -179 141 213 150 -267 147 -246 0
115 -369 264 -367 415 -331 0
115 -369 -269 -246 150 0
115 -369 -179 150 -226 -246 -259 0
115 -369 -125 147 -179 156 150 -267 -246 -259 0
115 -369 269 -243 162 -195 150 245 -246 259 0
115 -369 -243 250 375 407 269 -199 -140 267 0
115 -369 -183 -411 -259 270 -231 267 147 269 156 -199 -195 -155 -140 -243 0
-369 410 -243 -155 -245 -140 -256 -259 147 0
115 -369 267 269 -243 -411 270 -140 -152 147 -155 -231 -259 -232 0
-231 -225 -369 -162 -140 -247 156 -195 -259 115 -243 0
115 -369 159 -270 -263 162 -167 100 -179 252 150 -267 -246 250 0
115 -369 147 -225 124 -232 -257 -195 -140 -259 -243 0
115 -369 -179 -385 269 247 -246 -232 0
410 -369 -247 -155 -181 -259 -256 65 0
115 -369 -225 -226 -231 -259 -179 -246 -232 0
115 -369 -246 150 270 0
115 -369 -158 -269 150 249 -246 162 -411 270 0
115 -369 -248 156 150 -246 -168 -270 0
115 -369 168 -202 252 257 250 -269 156 -155 -261 0
115 -369 150 -246 -255 156 -248 243 0
115 -369 159 -269 156 -382 -270 150 -226 -246 -248 0
115 -369 156 121 -372 -246 150 -248 0
115 -369 377 121 168 150 156 -246 -248 0
115 -369 156 125 -269 -267 -179 150 -246 141 -248 0
115 -209 -235 -369 168 257 150 250 -269 -252 156 -248 0
115 -369 150 -263 -246 168 0
115 -369 150 270 -263 252 159 -172 205 264 249 -246 -233 100 0
115 -369 269 -202 -252 -250 -152 -372 -167 0
115 -369 267 -235 205 264 -252 250 147 -167 242 -137 0
-369 -132 115 -247 245 243 368 269 267 264 205 -152 -137 -167 0
115 -369 -177 252 -372 257 -270 267 407 -263 -181 153 100 124 0
115 -369 156 263 257 261 267 407 168 -232 0
115 -369 150 141 168 -246 0
115 -369 259 -155 257 250 -140 141 -269 -232 -235 0
-369 -207 -371 -257 -247 264 270 115 0
410 -369 -247 -167 -252 -152 65 -155 -259 -256 0
-369 115 -247 -152 153 205 -252 168 -270 0
115 -369 257 -269 -155 250 -393 -235 0
115 -369 257 269 -152 410 147 -252 -167 261 -259 141 0
115 -369 147 156 267 -195 -393 -259 -231 0
-369 243 -247 368 245 267 264 -210 115 0
115 -369 121 247 -150 -248 0
115 -369 -250 -192 -202 -263 159 270 168 -183 -248 0
115 -369 -333 156 168 267 -252 -248 -140 147 113 0
115 -369 150 -202 -246 -250 0
115 -369 269 122 -250 -372 -246 150 400 0
115 -369 -202 213 -250 372 -246 270 150 0
115 -369 -250 0
115 -369 -202 -268 -167 270 -252 -250 0
115 -369 268 326 269 324 159 -182 -192 168 270 -186 -263 329 -148 -250 0
115 -369 249 -337 -158 270 268 211 213 -259 73 269 156 -202 -148 -183 -250 0
115 -369 -202 168 270 141 -263 -250 -243 0
115 -369 247 -259 372 -182 -150 -250 -243 0
115 -369 270 213 162 211 269 375 168 -263 -232 -259 0
115 -369 -202 270 141 -250 -243 411 0
115 -369 -183 -167 -252 257 -202 156 65 -232 -250 0
115 -369 252 -412 250 257 -183 -141 -226 0
115 -369 -418 -225 -247 -254 319 205 -199 -172 268 367 0
115 -369 367 74 208 -158 205 -137 -202 270 243 264 -157 -250 -256 -221 -333 -172 -234 0
115 -369 243 -172 264 -255 -420 121 367 -387 -210 0
115 -369 211 156 -152 56 -248 -124 -250 213 -202 270 -186 269 0
-369 115 -246 150 0
115 -369 -137 -172 377 -162 -254 242 -240 0
115 -369 264 141 -240 -162 270 -243 377 -259 0
115 -207 -226 411 261 270 -269 -369 259 0
115 -369 -249 267 264 377 252 -185 -210 -240 0
115 -369 -155 -232 257 270 162 -226 250 -195 -393 65 0
-369 115 -418 -191 -158 -246 261 411 0
115 -369 -226 -375 -407 -257 210 246 120 -261 0
-369 410 -202 -155 -247 -259 -183 65 -152 -256 -250 0
-369 115 159 -270 162 168 147 141 -179 150 -267 -246 -243 0
-369 115 -202 141 150 243 168 -246 0
115 -369 -263 -267 250 -246 -158 159 156 205 255 270 249 168 -233 -148 0
115 -369 -219 268 264 -367 -227 -371 -336 0
115 -369 267 -172 269 375 247 -254 372 141 264 -156 -243 0
115 -369 -263 270 -255 -247 -199 100 -167 0
115 -369 -243 -202 141 -257 -250 -371 0
115 -369 168 -269 -202 250 257 -270 153 252 216 0
115 -369 252 -246 0
115 -369 -202 257 -140 141 243 250 -269 252 156 -155 0
115 -369 156 269 168 162 150 252 -246 -263 0
115 -369 -270 -227 -269 252 153 -419 168 156 124 0
115 -369 263 -243 121 -150 0
115 -369 257 247 270 147 55 211 168 269 124 -195 263 -243 0
115 -369 121 -150 259 263 0
115 -369 74 -269 -423 120 -235 -234 -157 141 156 210 255 259 0
-150 -369 -247 243 -248 115 263 0
115 -369 -249 -255 -246 250 263 0
115 -369 -243 -259 250 -270 407 -246 263 0
115 -369 -269 246 120 -407 -226 150 -272 138 -261 242 -137 -375 0
-369 115 411 261 -247 -407 270 -141 263 0
-369 115 -411 261 -247 -382 270 -141 263 0
115 -369 263 -257 -141 -419 -269 -407 -226 0
115 -369 -263 156 -202 252 168 -250 0
115 -369 -268 162 156 168 -250 263 0
115 -369 -270 -202 156 168 -250 263 0
115 -369 -374 264 126 -250 377 270 -331 -240 -210 0
115 -369 65 270 -183 -233 -250 -137 264 410 -234 -259 -210 0
115 -369 252 -246 -270 0
-369 -261 -246 -263 -256 250 252 0
115 -369 156 249 150 -255 -246 125 -248 0
115 -369 -246 -423 377 -263 150 113 168 -235 105 -195 -333 0
115 -369 249 -261 -257 -158 -375 246 374 -212 120 125 0
115 -369 255 147 -233 162 -226 -269 168 250 -422 0
115 -369 -179 248 -155 -259 247 269 -246 0
115 -369 247 269 270 0
115 -369 247 269 270 -255 0
115 -369 156 -199 270 141 269 -243 374 0
115 -369 -257 269 270 -372 0
115 -369 -246 121 0
115 -369 162 -377 141 213 150 -246 168 372 0
115 -369 168 159 162 150 -246 252 372 0
115 -369 168 159 162 150 -246 -377 372 0
115 -369 247 -225 375 121 -243 -150 372 0
115 -369 267 375 -243 121 111 -150 372 0
115 -369 247 -182 267 407 -259 -243 -150 372 0
115 -369 -255 -258 324 247 243 372 0
115 -369 252 247 -418 269 168 372 0
115 -369 -258 324 270 211 55 249 100 252 -233 -263 -152 159 -181 -192 372 0
115 -369 247 211 -257 270 372 0
115 -369 270 -257 213 -148 372 211 -375 -235 249 120 0
115 -369 100 252 372 -157 60 -258 -182 -58 -152 211 -375 -235 270 -263 0
115 -369 -150 121 -259 0
115 -369 -246 150 372 0
115 -369 267 -255 -252 247 243 -140 -210 121 0
115 -369 150 -267 269 -246 259 0
115 -369 162 150 -372 269 -246 259 0
115 -369 -247 -382 261 374 270 -141 263 259 0
115 -369 249 -234 -52 -158 211 270 -233 -250 -202 323 -257 371 372 -148 0
115 -369 -179 150 -246 372 259 0
-256 -369 326 250 -290 -246 -261 -260 162 249 0
115 -369 55 -152 372 -61 -157 270 -195 -279 211 -235 -114 -423 125 0
115 -369 250 263 162 259 247 156 141 269 372 243 0
115 -369 -235 -423 246 120 156 259 -148 213 249 141 211 -140 372 243 0
115 -369 270 247 264 -243 -367 121 -150 0
115 -369 -252 121 -150 0
115 -369 -422 -387 -132 -233 -257 -236 210 -167 0
115 -369 -422 156 259 -226 250 -233 162 141 263 255 0
115 -369 168 -270 -372 -267 269 252 255 0
115 -369 -259 213 123 156 270 -423 -246 150 125 -235 0
115 -369 249 -235 213 270 243 368 125 -423 0
115 -369 -52 371 -180 268 123 -263 156 46 210 168 246 -235 -423 -259 0
115 -369 159 -195 168 -263 -423 270 -255 -235 0
115 -369 -267 -411 326 -269 213 -235 -158 -252 -423 125 249 -79 141 -243 0
115 -369 153 -263 -423 -267 -235 243 0
115 -369 255 -423 -235 0
115 -369 377 -195 -157 -263 -243 105 168 270 -423 125 -235 0
115 -369 211 371 270 150 -235 125 213 372 -279 -257 -199 -61 -423 249 0
115 -369 -152 -250 -167 147 257 55 211 -202 269 410 141 -252 0
115 -369 55 249 270 372 -279 -61 211 247 -235 -423 0
115 -369 -152 -157 -235 125 168 372 55 211 -279 270 -61 -423 -252 0
115 -369 -257 -255 270 0
115 -369 -140 141 -243 411 270 0
115 -369 -235 -212 -263 -192 -243 -375 270 0
115 -369 -158 213 249 247 162 250 269 270 375 0
115 -369 120 -148 -257 -261 -371 -375 0
115 -369 -261 -371 -375 268 -336 -227 -202 0
115 -369 250 -263 100 252 375 0
115 -369 156 -180 268 371 150 -259 -52 -263 -375 123 -235 168 0
115 -369 -141 270 0
115 -369 -141 0
115 -369 245 -269 -141 0
115 -369 -259 -371 -227 -336 268 264 -252 -141 0
115 -369 -225 -269 119 -250 407 371 -141 0
115 -369 257 252 247 372 269 -418 -187 -141 0
115 -369 -152 407 252 56 257 269 -372 -187 -141 0
115 -369 -141 245 370 -250 -252 0
115 -369 -141 -150 0
115 -369 -263 -423 -141 -235 0
115 -369 -257 -269 -141 -267 -371 -177 0
115 -369 250 -202 -393 -270 216 153 -269 168 147 -195 0
115 -369 141 -243 0
115 -369 140 -202 -270 153 168 216 147 141 0
115 -369 323 -263 -180 -257 246 371 -195 -235 168 -333 113 -423 0
115 -369 168 269 -337 -243 -372 -195 -252 0
115 -369 243 -368 -255 0
115 -369 323 -333 246 -140 113 -257 371 243 0
115 -369 -336 268 419 -371 0
115 -369 -371 269 -372 268 -227 -336 0
115 -369 269 247 -254 -171 375 -168 -172 -137 250 0
115 -369 411 270 -393 -195 0
115 -369 124 -257 -195 -393 -226 0
115 -369 124 -243 140 141 0
115 -369 168 -243 -202 124 141 0
115 -369 -410 270 205 264 141 242 -243 124 0
115 -369 -259 269 -243 371 -155 153 410 -140 0
115 -369 124 141 -243 0
115 -369 211 247 -243 -202 -173 250 -248 245 -270 269 156 -140 0
115 -369 168 141 -243 124 0
115 -369 243 113 -236 -387 0
115 -369 243 264 -331 -167 205 121 368 -420 -252 0
115 -369 -227 150 -192 252 -201 -263 121 -157 100 268 270 -420 0
115 -369 247 252 269 168 407 0
115 -369 268 -267 270 -272 410 0
115 -369 -263 239 0
115 -369 263 -213 168 150 -267 -246 259 0
115 -369 -270 124 263 168 -195 147 -393 0
115 -369 270 156 168 263 410 0
115 -369 -202 -270 268 156 -250 263 0
115 -369 263 -150 121 0
115 -369 269 -337 -372 -423 -235 -256 250 0
115 -369 -202 412 -261 0
115 -369 -263 -423 -235 0
115 -369 -235 -423 0
115 -369 -267 -263 -235 -423 0
115 -369 211 269 -235 -423 0
115 -369 269 122 -235 -423 0
115 -369 420 269 -337 -372 0
115 -369 269 -372 -227 -419 0
115 -369 247 243 269 -227 -255 -419 0
115 -369 211 -227 -181 -385 269 55 -419 -232 0
115 -369 -252 -235 -212 -423 -243 0
115 -369 -167 -270 -252 247 269 156 -259 0
115 -369 -243 269 -336 268 124 -259 153 -140 -227 410 0
115 -369 -172 264 -233 -421 270 205 -234 -231 242 0
115 -369 -243 -252 270 168 247 147 -195 0
115 -369 141 -140 270 -243 0
115 -369 -333 -221 -368 0
115 -369 270 407 269 -372 255 0
115 -369 -232 264 -410 242 205 -137 270 0
115 -369 -371 259 247 243 250 -336 -267 268 -227 -168 0
115 -369 -336 242 -371 247 -137 250 -140 -227 259 268 -168 243 -226 0
115 -369 153 270 247 124 -259 -232 269 411 0
115 -369 411 -257 270 -371 0
115 -369 270 74 411 -158 -157 -227 -419 0
115 -369 247 141 -375 121 324 -258 -267 156 -270 372 211 55 -58 123 150 -235 159 168 147 0
115 -369 -140 153 -114 261 -419 168 -227 -270 162 -232 -385 263 0
115 -369 60 247 -258 -182 -375 372 -58 -261 243 -255 211 0
115 -369 -140 243 -368 -375 -261 -255 0
115 -374 -242 270 162 -369 74 -158 -233 -137 -232 -410 -261 0
115 -369 268 -234 -221 -333 243 -233 -227 -336 -371 270 0
115 -369 -199 -248 -186 269 -183 250 162 159 375 270 0
115 -369 -257 -248 -183 270 0
115 -369 153 -248 -157 -192 -263 168 156 -183 270 269 0
115 -369 252 -263 -183 270 100 -339 -192 -259 -231 0
-369 115 249 -263 -192 153 -157 372 156 168 -248 -183 270 0
115 -369 270 124 -257 -411 -259 -419 0
115 -369 247 -257 261 211 255 -181 162 -419 124 0
115 -369 255 141 -202 -140 250 -267 252 147 168 -270 0
410 124 -256 -419 -227 -259 -369 0
115 -369 -255 141 150 -202 269 -250 -246 0
115 -369 270 -257 250 375 0
115 -369 -421 268 123 -263 64 162 -337 269 153 -227 375 168 150 0
115 -369 -252 162 269 250 375 213 270 247 -186 168 0
115 -369 -263 -412 211 156 -152 105 269 -248 213 270 -186 162 168 -191 0
115 -369 -259 -412 -202 270 124 141 -243 0
115 -369 156 -255 -252 -423 -235 168 -195 -259 0
115 -369 252 -232 -385 100 -263 0
115 -369 -252 210 264 -372 -232 268 -336 168 -227 211 55 -180 205 -52 269 -385 0
115 -369 255 -267 -232 261 -385 0
115 -369 -232 -252 210 268 255 246 -167 -385 -267 0
115 -369 319 -385 -137 247 -254 -172 367 -243 -232 55 205 211 -140 269 -182 0
115 -369 -191 -202 -257 -232 -385 -252 210 -250 168 0
-369 -256 -258 -121 0
115 -369 -202 156 263 -250 371 0
115 -369 270 -202 156 -272 -250 371 0
213 -267 147 141 -235 -256 -272 211 270 -369 168 210 243 -375 0
115 -369 147 243 -267 159 -202 141 -270 269 -179 150 -246 168 -263 0
115 -369 138 -140 -243 -137 -254 -257 -386 0
115 -369 121 -259 270 -420 -210 -412 0
115 -369 264 270 -140 205 -243 -231 -421 0
115 -369 270 -157 -158 -421 411 -231 0
-369 -235 138 -375 247 -263 269 211 -267 270 -256 156 0
115 -369 -420 -157 270 -191 249 100 121 -263 -192 0
115 -369 213 -168 270 -186 -202 183 269 375 0
115 -369 -150 121 -410 0
115 -369 269 -181 -155 371 -257 211 65 410 -259 0
-212 -369 211 -256 270 -267 -235 -375 245 0
115 -369 -243 -195 162 150 269 -246 168 0
115 -369 326 -263 -186 159 -192 329 269 324 -250 268 -182 270 -148 -259 0
-369 410 -167 -183 -259 -256 -202 65 -155 -252 -250 0
115 -207 -232 -226 -422 250 -269 242 270 -410 -369 0
115 -369 263 121 -420 -150 0
410 -369 -420 -155 65 -256 -259 121 0
115 -369 368 249 213 -423 270 -235 243 0
115 -369 -270 141 -140 -267 147 255 263 0
115 -369 243 -255 -140 -385 -232 0
115 -369 -261 -255 -232 -385 -140 -375 243 0
-115 -263 -195 168 -243 162 153 -256 121 375 250 0
-374 -158 -256 -115 -157 74 -260 0
-115 -368 -256 243 -140 -255 0
-115 127 -256 -236 -257 246 0
-115 -256 -243 141 -257 -180 246 -261 -202 -263 168 0
-115 -374 270 -375 -150 -168 -269 -267 -202 126 0
239 -115 -256 -263 0
-255 -115 272 243 100 -192 -256 252 0
-115 -367 -267 100 -269 263 168 144 -137 -254 153 0
126 -374 -267 -269 -260 100 168 263 144 -115 153 0
-115 -256 55 -140 -255 243 211 247 -258 0
115 -369 159 -249 -371 -257 0
115 -369 -249 -257 243 0
115 -369 -249 371 -257 -259 159 156 150 250 -412 0
115 -369 375 -263 -249 -257 -382 0
115 -369 156 -250 -202 -232 -128 -257 269 -385 -213 0
-264 -257 252 250 270 162 147 -226 168 138 411 115 -369 0
-397 -257 246 -369 -261 210 -199 168 162 -252 266 0
-255 -113 -263 159 168 -152 -247 -261 -249 250 0
-113 -255 -199 -176 246 -257 144 210 -247 -256 -202 -261 0
-255 -113 150 156 147 153 138 -248 168 -264 -261 250 0
-144 -147 -113 -257 -255 159 -167 375 -252 -249 250 0
250 375 -113 150 263 -255 156 159 168 138 -249 147 0
-113 -267 150 147 -255 159 -242 250 375 -137 168 -272 -249 -269 0
-255 -113 -248 -269 150 -272 156 153 138 168 375 147 -264 250 0
-255 -113 150 156 -248 147 153 138 168 375 -252 -264 250 0
-255 -113 263 150 153 159 147 168 375 138 -247 -249 250 0
-113 -255 247 269 375 250 0
115 -369 -259 -249 -407 -255 -150 -226 0
-369 115 -259 -250 -255 -150 -245 0
115 -369 -195 -257 159 -249 -255 -263 0
115 -369 -140 -382 -226 -255 243 0
115 -369 -382 -226 -255 243 0
115 -369 -195 147 257 -269 -255 243 0
115 -369 153 270 147 269 -245 -255 0
115 -369 270 -255 -225 0
115 -369 257 -255 0
115 -369 55 -173 211 370 269 247 245 -255 0
-244 -255 -138 -195 -246 213 -201 150 -263 -136 252 270 0
-377 -113 -372 -267 259 -255 0
137 263 -242 259 375 -159 156 168 -194 -255 -113 -244 250 0
-113 -255 246 375 -257 250 0
-113 -255 242 -261 -236 -202 264 138 0
-387 -113 138 242 264 -236 -255 0
74 -374 -260 -255 -157 -113 -158 0
-248 -242 -140 -386 -155 243 250 -255 -261 270 -202 249 138 0
-250 252 -156 -255 -257 119 268 242 -192 -263 246 -202 138 -254 0
126 -374 -372 -14 242 121 243 -195 125 -255 367 -258 205 -254 0
-234 -121 -386 243 -258 -255 0
-368 -255 243 -246 250 -168 -242 -158 270 138 -201 213 -172 -219 -261 -254 386 0
-368 269 -255 -150 -140 243 270 -168 249 247 0
-234 243 -386 269 121 -255 -367 -372 -219 264 -331 0
-113 -255 242 372 269 138 -254 247 0
-252 -113 -256 -255 -261 168 -176 -246 144 162 -202 150 0
-176 -167 -252 -172 211 367 -256 269 -199 144 168 -113 138 105 -255 -152 -254 0
-113 -255 -259 156 162 367 -261 -252 242 -137 168 138 -254 0
-113 252 -263 -192 -246 242 -255 138 -254 0
-255 374 -140 -259 156 270 -242 -372 269 246 -257 249 138 247 0
-261 141 138 -257 -180 162 -242 -121 246 -255 -258 0
-255 -259 246 268 156 141 -137 -261 270 367 -257 162 249 138 -254 0
115 -369 -386 -234 -140 243 -255 0
105 -263 123 -242 -255 -195 -121 168 156 -192 -140 -258 138 0
-113 -255 -180 -137 242 -257 246 -172 319 -254 210 111 -149 323 46 -17 205 0
243 -255 268 -148 -372 367 -371 -258 -140 121 242 -137 264 205 -172 0
250 -261 162 141 -242 -255 246 -154 144 -156 -256 -257 138 -254 0
-263 -192 -176 -381 150 144 372 -140 153 -246 252 -255 243 0
-375 -368 243 -140 -372 121 -235 269 -255 0
-144 -168 113 -255 -259 270 -140 -232 156 243 249 0
115 269 -242 -255 -195 372 -252 144 -137 168 138 247 0
121 -372 367 -255 150 -195 156 -259 242 269 -256 -246 208 138 -254 122 0
-236 -261 -154 -140 243 246 -156 113 -255 -257 -202 0
-255 -168 243 -232 -259 270 -150 113 249 0
-255 252 269 113 -192 246 247 211 100 243 -371 -263 268 0
126 -374 121 125 -140 243 -258 -255 -372 -368 0
-374 -232 -255 -140 -155 250 -259 -261 243 270 162 249 0
250 -113 150 156 -254 -248 -242 153 -272 138 375 168 -255 147 0
162 250 -176 -137 -246 -195 -261 150 -255 -154 -156 144 -256 138 -254 0
-148 -250 -255 168 264 -252 -150 -202 243 -224 -195 -136 -256 205 -172 0
-224 367 -140 -137 -255 -256 -246 243 242 264 205 -172 0
-368 -255 269 -219 -140 -367 121 -372 243 264 -331 0
-368 -375 -202 -367 -219 -140 243 -255 -261 264 -331 0
-368 -255 -246 -168 -250 269 243 -372 259 0
-255 269 -219 -140 -367 -374 243 270 -368 249 264 -331 247 0
115 -369 -263 -255 252 100 243 -140 0
-263 -377 -246 243 -140 -368 -255 0
-250 -263 -144 -255 156 242 -192 -248 -246 -202 252 138 -254 0
243 173 0
-266 243 246 250 -261 -138 259 -267 -136 -168 0
243 -140 -119 250 270 -269 -267 -257 162 249 0
368 243 -182 372 247 55 -61 -258 211 -152 324 0
243 -255 105 -176 -254 -172 269 168 -252 -256 -242 -162 -150 138 0
368 243 -172 367 264 242 -137 205 0
-234 243 -227 -219 -221 -336 242 -386 268 -371 -333 264 11 205 -331 0
368 -234 243 -386 0
-372 126 269 -242 -155 -374 243 270 368 246 -259 -257 121 138 0
115 -369 -140 257 121 -226 261 259 162 141 -420 243 0
368 243 119 246 371 -180 -257 323 0
-234 119 -221 243 -261 -386 246 -333 -375 -257 -202 268 0
115 -369 -255 -140 -261 -240 377 -375 243 0
115 -369 113 371 246 210 243 -333 -140 0
368 243 -257 51 246 47 210 -49 371 0
368 243 -172 -14 205 16 242 367 -254 0
-255 -368 -148 -371 -372 268 243 121 -140 -258 0
243 323 270 119 371 113 246 -137 -333 242 -257 249 138 -254 0
-221 -385 -119 243 156 367 162 -257 -235 -137 138 -254 0
115 -369 -246 162 -272 -232 -255 -385 -418 -213 0
-270 -153 -259 -255 150 -246 115 -369 0
-270 -153 243 -255 150 -246 115 -369 0
-138 -270 -141 -267 259 0
-138 -270 -182 -192 -267 259 -141 249 0
-270 -162 252 -247 168 115 -369 0
182 -268 -270 159 0
172 -270 -268 159 0
115 -369 257 -270 0
259 -267 -270 0
259 -267 -337 153 -202 168 -263 -252 250 -138 -270 0
259 -267 -224 -270 252 0
259 -267 162 -252 243 -270 0
182 -267 -270 0
192 -267 -270 0
115 -369 243 -269 159 156 -270 153 141 162 -236 259 0
259 -168 -270 -267 -246 0
-232 -270 -267 -252 -152 65 205 -167 -199 -247 115 -369 0
259 -267 -195 -372 -173 -270 367 0
259 -267 -270 -242 246 243 0
259 -267 -270 243 -242 0
-267 259 -195 367 -137 -270 0
-232 -270 -167 255 -252 -152 -231 205 -267 -199 -247 115 -369 0
168 -270 -259 -152 252 -199 -247 -255 115 -369 0
-144 -162 -150 0
-144 -159 -150 0
-141 -150 -159 0
-150 -138 -141 0
-150 -247 264 159 138 -244 -387 -255 -113 -249 -236 0
-267 259 -159 -136 -269 -150 205 0
-381 -150 267 -235 -224 -252 -138 -261 -249 250 0
-374 -235 270 -150 -375 -168 126 0
-375 -150 -144 -412 0
-367 -219 -150 -148 264 -331 0
415 -367 264 -331 -148 -150 0
-144 -367 -150 -219 264 -331 0
-367 -156 -219 -150 264 -331 0
-422 -140 -199 -233 -247 -243 0
-243 162 -261 270 -242 250 246 -140 -257 268 249 138 0
-374 126 -372 269 -243 270 -242 -140 138 0
-235 -375 -261 -242 -243 269 -140 -372 138 0
115 -369 65 255 261 -232 -155 141 257 121 -420 252 -140 0
-243 -242 -140 -371 269 121 -227 -372 268 -336 138 0
-333 -263 371 -140 -195 -372 246 269 121 -242 168 113 -257 138 0
-423 -235 -242 -140 -243 138 0
-243 -242 -419 -227 -140 138 0
-374 -412 -375 -235 -242 -140 270 -243 126 138 0
-243 -140 372 -242 156 -375 -182 -261 -259 -202 138 247 0
-267 -247 263 410 -259 243 -150 115 -369 0
115 -369 -168 257 -155 65 -249 -267 410 0
115 -369 159 -249 257 -267 0
115 -369 -249 159 -267 0
-369 115 -272 -269 162 -419 -267 -249 -227 -158 0
115 -369 257 147 -267 -269 0
-369 115 -272 -213 250 124 255 -227 -267 -232 -419 0
115 -369 255 -232 -385 -267 -213 0
-267 -256 -247 255 259 -168 205 -249 243 -261 250 0
172 -267 -148 255 115 -369 0
172 -267 -148 -159 255 115 -369 0
-205 -267 150 255 -268 115 -369 0
-269 -267 -257 162 249 138 -254 247 0
250 -267 -257 162 249 138 -254 247 0
-127 -261 -226 267 -224 -256 0
-261 -153 -256 -246 -243 -176 -168 -254 0
-138 -261 255 -256 114 -150 -249 250 0
115 -369 -153 257 159 -249 -261 -407 0
-261 -421 -231 243 -247 113 -201 -249 115 -369 0
115 -369 153 147 162 372 269 159 -249 -261 370 0
115 -369 250 -256 264 -137 -261 -224 138 412 -226 242 -382 0
-242 -261 -254 -252 -263 -255 246 268 168 -153 205 -176 -256 243 -142 -194 0
-138 -261 246 243 -195 168 -153 -255 -263 -180 -202 -176 -256 -257 -368 0
115 -369 -336 -180 210 -261 268 -382 -375 -226 246 46 0
-244 -261 -159 -180 -168 264 -255 250 268 -257 150 -140 -136 243 -221 -137 0
-255 -113 -168 -256 250 -249 -261 0
-113 250 150 138 -153 159 -255 168 -249 -261 0
-127 -374 74 -158 -157 -260 -261 0
-375 -261 -372 269 -242 -263 -219 270 -246 374 -202 249 138 -254 122 0
-375 -242 -202 -219 -148 -261 269 -372 -246 138 -254 122 0
-179 415 -375 -261 -246 264 -367 -136 -202 0
-127 -261 -257 -148 -371 0
-151 -153 -261 243 162 -255 250 -256 -224 0
-151 -153 -221 -333 -368 0
-153 -151 -240 377 -187 162 115 -175 208 29 -235 -176 0
-153 -151 -336 -371 268 419 0
-245 -246 411 270 -158 147 213 150 125 0
115 -369 411 270 -245 -177 0
254 411 -226 250 270 -212 252 115 -369 0
-246 -179 -158 213 125 411 0
115 -369 -259 410 270 411 124 0
-422 -250 -167 -202 -252 -233 0
-422 115 150 -246 123 -412 -259 -233 156 250 -224 0
233 -158 125 -157 0
-147 -144 -156 0
-154 -144 -156 -159 0
-138 -156 -150 0
-156 -247 147 115 -369 0
-156 -247 147 -422 150 -233 243 115 -369 0
115 -369 -156 261 270 -118 -257 162 147 -272 255 0
-236 -261 -156 -17 -219 242 -260 -154 -202 249 138 -254 0
126 -374 -242 -372 -156 270 -246 -219 269 138 -254 0
126 -374 270 -375 -156 -219 -242 -261 -246 -202 138 -254 0
-375 -150 -156 252 -263 270 -261 -374 -202 249 0
-141 -156 -261 250 246 270 268 -257 162 249 0
-261 -236 242 -137 -156 246 -257 268 -202 -141 367 138 -254 0
-154 -374 -233 270 -156 0
-234 119 -257 -148 268 246 -386 -156 -154 0
-250 -137 323 -156 144 -255 -242 -202 -154 141 -256 -257 246 138 0
-156 -144 -168 0
-371 -227 -141 -156 268 -336 0
-224 -261 250 162 246 -156 -141 -256 -257 268 0
420 -337 -156 -372 -154 269 0
-227 -371 -154 -156 268 -336 0
419 -371 -336 -156 -154 268 0
-236 -261 -137 -156 -202 268 242 246 -144 -257 138 -254 0
-156 -144 -150 0
415 -367 -156 264 -154 -331 0
-221 -192 252 -144 -156 -263 242 -219 243 -246 138 -254 0
377 252 268 -141 119 246 -156 -263 -257 0
252 -257 268 -260 -186 -263 -141 246 -156 249 0
-243 -263 -261 162 252 246 250 -156 -242 -257 268 138 -172 0
-141 -263 252 374 246 -156 -186 -257 249 0
250 -377 -263 -261 252 246 -156 162 -141 -257 268 0
-208 -141 -156 0
-263 -192 162 -261 252 -255 250 -246 -156 242 138 -254 0
-117 239 267 -263 0
115 -369 372 150 -246 269 -382 -259 0
115 -369 -249 -412 267 -246 -259 0
-158 -369 -250 65 -155 -183 -256 410 -249 -259 -202 0
115 -369 -382 -155 159 -146 162 -249 -259 410 -412 0
115 -369 -199 211 156 371 -257 159 -249 -259 269 0
-158 -369 -243 -195 -256 410 -249 124 -259 0
115 -369 372 371 -259 -159 -245 0
115 -369 159 243 156 -249 368 -259 407 267 0
-122 -259 -255 -419 -227 243 -159 115 -369 0
115 -369 147 -227 -263 269 159 -412 243 250 -192 268 150 -249 -186 270 -259 -337 0
115 -369 -183 -185 -249 -259 377 156 -240 -231 0
115 -369 252 375 -263 -192 -254 -259 147 -159 267 0
115 -369 -158 -255 -382 410 -155 -195 159 -249 -259 -146 0
115 -369 -263 -250 -254 -259 -159 -192 252 407 267 0
115 -369 249 375 270 407 267 -259 -210 0
410 -369 -245 -256 -155 -183 -250 65 -259 -202 147 0
-247 -259 65 -155 125 326 -263 -411 -79 -192 147 -245 115 -369 0
-247 -259 -263 329 -177 270 -192 147 -245 115 -369 0
123 -412 -224 -247 250 -259 153 156 162 147 115 -245 0
115 -369 -177 168 329 125 326 -263 -79 156 -192 147 -259 -245 -411 0
115 -369 267 270 -259 410 0
-259 -247 268 -152 -199 -255 115 -369 0
-374 126 268 -148 -259 367 270 242 -137 248 -257 -371 138 -254 0
248 -374 268 -259 367 270 246 -17 -137 242 -257 126 138 -254 0
-374 -155 270 -261 -259 -373 250 -375 162 249 0
-381 -257 268 141 144 156 -259 270 371 246 -219 -333 113 -176 -367 249 264 -331 0
-375 372 -263 168 -261 -202 -259 -242 -182 156 -246 138 247 0
372 -263 156 -242 -246 -259 -182 168 150 138 -254 247 0
-259 162 246 270 -186 250 -261 248 -257 268 249 0
372 -375 -235 268 -371 -155 -336 -242 -182 -227 -259 -261 123 -202 138 247 0
250 252 162 -192 156 246 -257 272 -261 -259 268 138 -254 0
250 -261 -242 -155 -137 -167 -232 -235 270 -259 -252 162 249 0
-336 -373 -231 268 -371 -235 -259 -375 419 -261 0
115 -369 269 -259 -412 247 162 124 250 0
115 -369 -243 250 124 147 -257 -232 162 211 -195 -259 -270 -140 0
385 -367 -371 64 -227 268 -219 -259 -336 264 -331 0
-374 162 252 250 -259 -261 -263 270 -232 -155 -246 249 0
-139 385 -259 -137 270 119 -242 168 -252 113 -155 246 65 -333 -257 249 138 0
-373 -375 -227 -231 -371 -259 268 -261 -336 -235 -202 0
-231 -235 -386 243 250 -261 -140 -255 -259 -373 270 249 0
126 -374 -371 -148 -155 -259 270 268 -257 385 0
385 -261 250 -186 367 -246 -259 -14 -168 -155 270 162 249 138 -254 0
-261 -235 -257 162 246 168 371 -259 -252 -367 156 268 264 -254 0
-123 -221 -202 -259 243 -261 -236 0
272 252 268 -259 -202 -257 -250 -192 246 156 -242 138 0
272 252 -192 -257 -259 268 -250 371 -202 246 156 138 -254 0
-183 -242 65 -232 -259 246 -202 272 -192 371 -137 252 156 -250 -257 268 0
-247 -410 -263 -150 115 -369 0
115 -369 -407 162 -412 159 -249 147 -232 -410 0
115 -369 -243 162 141 -261 159 -249 -232 -410 0
115 -369 -232 247 -412 269 -159 -410 -245 0
-410 -247 153 -139 -195 147 159 -174 -268 -232 -249 115 -369 0
115 -369 257 167 -249 -232 -410 0
115 -209 -250 264 -232 270 -410 -369 0
115 -369 270 -202 156 -250 -225 -410 0
115 -369 -195 -232 -252 147 168 113 -333 -410 -407 0
115 -369 -410 55 267 211 147 247 -232 269 -252 -167 0
-167 -410 153 156 -252 147 -247 -225 115 -369 0
115 -369 -199 138 264 257 -232 -410 0
-272 -410 255 -422 270 205 -199 -247 115 -369 0
-235 -375 267 -261 -410 -226 -231 250 -232 -224 115 0
-410 150 -242 243 123 -232 -155 -246 270 368 249 138 -254 0
-369 115 250 -410 -232 159 -269 162 -140 243 -270 0
-373 419 268 -410 -371 -336 0
-410 -373 326 121 125 -411 -261 -79 -372 -232 250 269 162 249 0
-410 -373 264 415 -367 -331 0
115 -369 -158 74 -185 213 270 -410 121 -232 -420 0
250 -113 147 153 -255 -244 -248 144 168 156 257 -272 -269 0
-248 -247 270 411 -210 115 -369 0
-418 -225 -246 156 -248 150 0
-153 -248 -255 150 -246 115 -369 0
115 -369 156 153 -270 -255 150 -246 -214 -248 0
115 -369 -207 159 -249 -248 377 0
375 -382 159 -249 156 -248 147 162 0
124 250 150 -180 159 -248 -249 371 375 0
115 -369 -252 -159 371 269 -257 -204 -248 0
375 250 -249 -180 159 371 -248 156 150 0
-422 377 -226 -382 168 156 -233 -248 0
-418 -225 156 -199 -248 -247 0
115 -369 407 267 -248 156 -204 -252 0
250 372 156 377 168 269 153 375 -248 -263 0
-242 -248 -155 -247 138 -152 0
-248 162 -242 250 156 246 270 -261 -257 268 249 138 0
-248 -242 -219 150 156 -246 138 -254 0
-415 -248 -219 156 -250 -202 0
375 -176 270 162 115 -17 156 250 144 367 -257 -248 138 -254 0
-374 126 -367 150 125 -246 -219 156 -248 264 -331 0
-204 -248 270 411 -367 156 -252 -219 126 0
-248 -246 411 126 156 150 125 0
-252 -248 168 -242 156 138 0
-183 -248 150 -246 -242 -219 138 -254 0
126 -374 -235 270 -248 -375 -155 -242 -261 138 0
115 -369 -269 162 -167 141 156 -257 147 -248 -252 0
115 -369 -263 269 -337 375 -248 153 156 168 250 0
-415 -248 -219 -246 150 156 0
-232 -248 -261 -176 250 -167 -142 -381 270 -252 156 162 249 0
-420 121 -252 -204 156 -248 0
-374 -337 156 -155 -248 -233 -132 -339 121 168 -372 0
-375 372 -248 -242 168 156 -263 -261 -202 138 247 0
-248 -227 -235 -375 268 -336 -261 -371 -242 -155 138 0
-248 252 -242 270 246 268 -155 -263 -257 249 138 0
-377 -375 -248 -202 -242 -155 -261 -263 138 0
-248 -252 -137 -167 156 -242 138 0
-368 -374 -255 -248 -140 243 -261 250 -242 -155 270 249 138 0
-244 -248 144 156 -167 -252 0
-374 -183 -227 -248 270 -233 -371 268 -336 0
-374 243 419 -333 -371 -221 -381 -248 144 -242 -233 -176 270 -200 268 -336 138 0
-415 -248 -204 156 -252 -219 0
-367 -252 -227 -336 -371 156 -219 268 -248 -204 264 -331 0
-183 -252 -167 -137 -242 -248 0
-204 -419 -252 -248 -227 156 0
-248 -137 -202 -242 156 -250 138 0
115 -369 -267 -207 147 150 156 -246 -248 0
-219 -252 208 -248 326 125 -79 -367 374 156 -167 369 249 264 -331 0
-423 -235 141 -243 156 -248 0
-248 -243 162 -387 156 141 -17 -137 367 138 -254 0
-374 -183 -219 -248 -367 -233 270 264 -331 0
-420 -248 -246 150 156 121 0
-250 -381 144 -141 156 -219 -17 -137 242 -248 -246 -202 264 205 -331 0
-248 -381 -243 141 144 375 156 162 0
-248 -243 -140 -242 156 138 0
191 -248 326 -339 105 162 125 -79 -186 168 375 121 -67 269 159 213 -263 156 153 0
191 -244 -167 156 144 -248 0
-149 -396 -248 156 0
-176 232 224 144 159 156 -249 0
248 232 0
-267 232 168 113 -367 -139 156 -252 -219 -269 -333 162 249 138 -254 153 0
-381 -375 111 250 267 264 -224 -194 -263 205 -225 -239 -226 168 -412 -192 0
-415 -412 -199 -247 371 -367 120 115 -176 -219 162 125 374 -180 0
-374 -412 -336 -371 270 -375 -233 268 -227 0
73 -392 -269 150 243 -267 -140 -158 259 208 244 -412 113 138 -254 213 171 115 249 162 0
-375 -412 -336 268 419 -371 0
375 -381 -249 -243 144 159 -176 -168 0
375 250 -150 159 -138 -136 123 -176 -249 224 0
375 -120 -367 -219 -411 -415 162 -255 125 115 -153 -369 0
115 -369 267 407 -168 -249 111 375 0
-158 -224 -269 375 250 -256 -232 -231 -249 0
115 -369 252 -243 147 -202 100 216 141 -263 -225 375 0
250 -244 -252 138 -113 375 -269 168 159 -249 -255 0
-244 375 -247 -382 -245 -159 168 147 -252 162 0
-234 375 -386 250 0
115 -369 -263 159 168 -232 150 -249 -246 -385 0
115 -369 375 -202 156 159 -249 -263 -385 0
-385 -153 -245 -255 159 -249 115 -369 0
-385 -247 377 -263 -243 -195 -192 168 153 156 0
-128 -385 371 -202 119 156 210 150 -225 -418 0
-167 -385 -397 100 -199 377 -263 -192 156 0
-127 -267 -261 255 -269 122 -385 100 153 -232 393 252 0
-232 -385 205 -254 -17 -172 -137 319 367 242 111 0
-235 -369 -232 -375 138 -256 242 -385 264 0
-14 -261 162 -385 250 144 -232 -243 -256 367 -195 -246 138 -254 0
-232 -49 -385 -257 246 371 210 51 47 0
115 -369 -252 -371 205 264 -227 268 -336 -232 -167 -385 0
-58 60 211 -258 -385 247 56 -182 372 -232 0
-385 -261 -371 162 -148 156 -252 168 367 242 -14 -257 268 138 -254 0
-381 -250 144 -252 168 156 -385 -176 -202 0
-385 -232 -14 -172 205 16 242 367 -254 0
115 -369 -259 -412 250 113 -150 -382 0
115 -369 -333 113 -140 -226 -382 243 0
-381 -176 113 144 -219 -125 -246 -195 -137 -242 150 -260 138 -254 0
113 -236 -111 243 -261 -254 -202 0
113 -236 -154 -252 -246 -261 168 -333 -195 150 -156 -137 -202 138 -254 0
-252 -144 -373 242 -137 367 168 -150 -261 -155 113 -259 162 264 138 -172 0
-234 -144 -14 113 367 -333 -386 -156 -137 -252 168 -140 138 -254 0
-236 -261 -252 144 113 -333 -256 242 268 -137 246 168 -195 -176 367 -257 -202 138 -254 0
115 -369 -236 -140 113 -387 243 0
-235 -252 -150 367 243 -137 -261 113 -333 -140 -156 168 162 264 138 -172 0
-148 -261 243 -150 -260 113 -333 -140 -236 -202 249 0
-234 -367 -333 -219 121 113 -372 -386 243 269 264 -331 0
115 -369 -252 -236 -140 -387 113 156 168 -248 0
-212 121 269 326 113 -333 369 374 125 -242 -372 -79 249 138 -254 0
-381 113 -156 -242 168 -137 -140 -246 144 -333 -252 138 -254 0
-234 -252 -386 -246 168 -333 -367 150 113 -140 264 -254 0
-234 -231 -333 415 -233 -259 -140 243 -367 270 -232 113 264 -331 0
-144 -259 -155 113 -333 -195 -232 -140 367 242 -137 -374 270 -246 249 138 -254 0
126 -374 -176 -155 -381 367 144 242 113 141 -259 -232 -250 270 -202 -333 138 -254 0
-252 -333 -137 -246 -140 113 367 168 -144 -156 138 -254 0
113 -156 269 -150 -333 243 -140 372 247 0
-234 113 -156 -154 -140 243 -386 -333 0
-333 -374 323 243 246 -144 -140 270 -156 113 -257 126 0
113 -248 -202 -219 156 -333 242 -137 -144 141 -246 -250 264 205 -331 0
115 -369 147 -245 -387 162 150 -246 -195 113 0
-113 -255 -254 138 144 -236 159 -244 -158 -249 -387 0
115 -369 156 -255 -261 159 -249 269 -124 0
115 -369 252 -247 -418 257 -141 -124 0
-124 -244 156 144 -242 138 0
-183 -124 -243 141 156 0
-124 375 141 371 162 156 -180 -243 246 0
-374 126 -260 252 250 -246 -263 375 0
-374 126 -202 -375 270 -261 269 -372 0
126 -374 268 -227 -371 -261 -235 270 -336 -202 -375 0
-415 -374 121 -372 269 270 -219 -185 0
-374 -367 269 270 121 -219 -372 126 264 -331 0
-374 -375 -372 270 269 -261 121 -235 -233 0
126 -374 -242 270 -202 -137 269 -372 -250 0
-339 -162 -270 -247 168 115 -369 0
-152 -247 150 -246 115 -369 0
-155 -398 -249 159 0
115 -369 -255 252 -236 257 -420 -155 -202 156 65 121 -140 -232 243 0
-248 -155 -227 -419 -242 138 0
-267 -155 -182 372 -374 -375 -261 -242 -368 270 -272 243 250 162 249 138 247 0
231 123 -155 0
-374 -373 -259 -155 -150 -144 -260 126 0
-398 -155 -381 -137 367 144 264 138 -172 0
-267 248 123 252 -258 -167 -121 168 -155 -270 -246 141 243 159 0
115 -369 250 267 162 -249 147 159 -269 -412 0
115 -369 410 -183 264 147 -159 -259 -231 267 -252 -235 0
115 -369 -245 147 0
-138 168 208 -162 -192 243 269 -246 -140 -255 272 -263 -256 321 0
-247 168 -369 269 -250 115 0
263 168 270 -199 -247 205 115 -369 0
115 -369 243 -140 159 -263 205 264 -249 -255 168 0
-374 372 -172 -256 -246 242 -176 243 269 -254 105 -255 -162 168 -252 138 -167 -191 0
-421 -231 150 168 -382 -120 377 -226 -246 0
-234 -372 -242 -252 270 269 121 246 168 -233 -257 -194 0
-252 -52 -261 156 -372 -235 250 -227 168 -336 121 268 246 -259 269 -242 162 138 0
-252 -242 268 121 -336 -227 -372 168 269 -371 -194 0
-374 126 -261 -252 270 -183 168 242 -137 367 385 162 -259 138 -254 0
-210 -267 -258 -150 -242 123 -270 -246 -372 -250 168 -141 -202 159 138 0
-138 252 -192 -224 -150 -263 -256 -261 250 0
115 -369 267 -148 -249 -201 -269 100 -257 162 407 252 255 0
252 -270 407 255 100 -180 267 -199 -247 268 115 -369 0
-226 377 -382 252 216 100 0
115 -369 -187 255 162 407 -269 -183 156 252 -263 -225 0
377 372 216 252 100 247 0
-374 126 -246 -17 -261 242 -219 250 -263 270 -202 252 138 -254 0
-374 126 -17 -260 -246 -137 252 367 -263 242 138 -254 0
252 374 -263 242 -246 -219 -186 249 138 -254 0
252 242 -186 -192 -246 -263 374 249 138 -254 0
-375 -261 252 -263 270 -246 374 -202 249 0
-263 372 269 168 242 -246 252 138 -254 247 0
250 252 -261 -119 -263 162 -257 0
-263 162 119 -374 270 250 246 -261 252 -257 268 249 0
115 -369 162 -263 252 255 147 156 407 -269 -183 -187 0
323 377 -263 252 371 119 -257 246 0
-176 137 268 -172 367 -258 -254 100 162 138 252 -263 150 -261 -256 -192 -141 0
-371 -227 121 -186 374 -372 -336 252 -263 249 0
-232 -231 162 250 -261 -257 -235 252 268 246 371 -263 -259 -192 0
248 126 -155 -374 268 270 -259 -263 156 246 -257 252 0
252 -257 268 270 -243 246 -263 -140 -242 249 138 0
377 252 -192 -263 -186 374 249 0
-176 252 326 -246 -192 374 272 -256 367 -259 156 144 249 138 -254 0
377 252 -192 242 -137 367 -263 -17 138 -254 0
123 -242 269 -259 100 -155 270 246 -372 -263 252 -257 249 138 0
-370 -263 -225 239 0
-263 -153 -407 257 159 -249 115 -369 0
115 -369 -255 -156 159 -249 -263 269 0
115 -369 211 168 -199 -249 -263 159 -152 269 156 105 -248 -124 0
-337 -263 -138 121 268 250 -192 -368 153 -202 115 168 -255 -195 252 224 -176 -256 -261 -221 0
137 -258 -254 -263 -141 100 -172 -162 -182 -176 252 -256 268 138 0
-375 -377 -263 -261 -246 -202 0
-227 -377 268 -250 -336 -263 -137 -371 -242 -202 0
-263 162 -260 -192 250 252 375 -246 249 0
-261 250 252 121 -263 -333 113 -258 100 -337 -246 247 243 -202 0
239 -374 -263 -233 0
121 -372 252 246 -186 374 -263 -257 249 0
239 -263 -260 -125 0
126 -374 239 -260 -263 0
252 -235 -263 250 -257 100 162 -119 0
-377 242 268 270 246 -263 -257 249 138 -254 0
115 407 -242 -257 156 168 121 -259 -270 -263 -192 -372 269 144 246 138 247 0
-381 -263 -257 371 -242 -372 168 269 246 121 144 -194 0
252 250 162 323 -257 -192 246 -263 -261 242 371 138 -254 0
239 -375 -263 -235 0
239 -263 -258 -121 0
239 -367 -263 -219 0
252 242 -233 270 -257 367 -17 246 -263 249 138 -254 0
239 -263 -371 -227 0
-412 -377 -263 -375 -235 0
105 375 -182 -248 156 -152 168 377 211 372 -61 -202 153 -263 269 0
-139 -202 -141 144 -263 150 -256 372 55 211 -261 250 247 -182 -246 269 -176 0
-139 375 246 210 -149 162 250 -263 252 268 -192 -141 0
239 -234 -386 246 -263 -257 0
252 123 -192 -263 156 -257 250 246 268 -259 -242 -261 162 138 0
121 -372 269 -263 123 100 -246 -141 -192 -242 -259 138 -254 0
239 -263 121 -372 0
-374 371 -339 156 248 246 123 -263 252 -231 -260 268 -257 126 0
-207 372 247 147 249 55 211 -263 -246 144 252 0
239 -231 -373 -263 0
-158 410 213 -202 377 -183 100 -263 269 -259 252 -152 270 211 123 -231 375 0
-421 410 -137 168 375 377 65 -263 -183 -202 -242 123 0
239 -113 -263 -255 0
-374 -333 -263 -259 385 -155 123 243 252 -192 270 -246 -221 126 0
-250 -176 -139 -258 150 -263 55 211 -257 -192 247 144 -141 -256 -279 -246 -202 0
377 -144 -219 -192 242 252 -263 -150 138 -254 0
115 -369 211 -152 -202 375 100 -183 -248 -191 -263 156 105 269 0
115 -369 249 159 125 100 374 252 -192 -263 0
115 -369 249 100 252 159 374 125 -263 0
252 367 243 -221 242 -17 -263 -192 -246 138 -254 0
377 -243 -259 -367 -192 -244 -219 -263 156 141 252 123 144 264 -331 0
115 -369 -385 213 -263 168 162 211 269 -232 270 375 0
-232 -385 252 250 -246 -263 -192 -261 162 0
-256 -369 205 168 138 -254 -243 -261 162 250 -150 -263 141 377 -148 -172 0
377 -244 -254 138 141 -243 -261 -150 162 -176 144 205 168 -192 -263 -148 -172 0
375 -224 371 162 -202 115 168 -263 246 -243 141 0
-224 -385 -246 -232 -263 -192 -256 252 0
-381 -224 -279 150 -258 -263 252 -141 144 -202 247 119 -192 -139 371 -250 -257 0
368 -156 -150 -263 -192 243 252 242 138 -254 0
-248 369 -242 -176 156 252 270 144 -263 249 138 -254 0
372 -263 -248 -242 168 144 -246 -256 -176 156 -279 138 247 0
-342 256 -272 -269 144 -115 -267 0
115 -369 159 150 -249 -246 269 -263 100 -167 0
115 -369 410 -249 -167 -252 0
115 -369 -249 -167 -252 0
-256 410 -155 -259 159 -249 -252 -167 -369 65 0
377 -167 -422 168 -233 -199 -225 -247 115 -369 0
-252 -250 -225 -167 -418 -202 0
115 -369 210 270 -252 -257 159 -167 -226 -407 374 0
-167 205 252 -172 -270 -255 -225 -199 -247 168 115 -369 0
372 -111 246 -257 -387 -167 -252 162 153 -254 0
-235 -252 121 -261 -167 -246 150 -375 269 -372 -202 0
385 250 -261 -252 -232 -137 270 -167 -259 -242 162 249 0
-419 -227 -250 -167 -202 -252 0
-421 410 123 -167 -132 375 269 -183 -202 372 -231 -152 0
115 -369 247 372 -225 -418 270 -157 -252 -204 0
-374 -402 270 -259 -231 -233 -204 -373 0
-191 -374 -233 -261 -235 270 -375 -252 0
-191 410 65 -256 -369 -259 -155 -252 0
-191 -235 -261 -259 -375 -252 -373 -231 0
254 138 -270 211 -267 -269 0
-242 -247 159 -249 -168 -246 138 0
-242 -137 150 159 -246 -249 0
-242 -247 138 -246 -152 -179 0
-252 159 168 -242 138 -249 0
-242 -247 -249 138 159 -199 0
-242 -247 -158 249 -255 -140 243 270 -210 115 -369 0
-242 -249 159 -181 -247 138 0
371 372 246 -242 -257 138 -180 375 119 153 162 0
-158 -137 -244 144 -242 159 -249 0
375 -35 -232 -255 -256 369 168 138 250 -113 -159 224 -242 0
385 -113 -242 375 -263 250 259 168 138 -255 -244 -159 0
-263 268 246 -186 374 -137 -202 -250 -242 -257 252 249 0
-137 -263 270 246 -202 -242 268 252 -257 -250 249 0
372 -374 270 -246 -259 -242 150 156 269 249 138 -254 247 0
-419 -227 -242 -250 -137 -202 0
-374 -235 -246 -375 -254 -172 -219 150 270 -261 -242 -233 138 0
-242 -250 -137 150 -246 -202 138 -254 0
-374 -242 -171 -233 270 268 -371 -227 -336 0
-375 372 -242 -202 -182 -246 -259 150 156 -261 138 -254 247 0
121 156 -252 269 -242 -246 270 374 -259 249 138 -254 247 0
-140 -242 -374 270 156 -259 -243 269 249 138 247 0
-140 156 374 269 -243 -242 270 -259 249 138 247 0
-422 -243 -233 138 -140 -242 0
367 219 0
-419 -227 105 -137 377 -249 -172 205 -254 -263 367 -167 159 -14 0
367 -16 -172 0
372 -58 367 -17 269 242 138 -254 247 0
60 -58 211 205 -182 -254 -172 16 242 372 367 -14 247 -258 56 0
-236 242 -17 319 -387 -254 -172 205 -137 367 0
-236 242 -254 -172 367 -17 138 319 -387 0
126 -374 -371 270 -252 242 367 168 -137 -148 -261 -257 268 162 138 -254 0
-252 -374 -137 242 246 -17 367 -261 270 168 268 -257 162 126 138 -254 0
115 -369 257 -415 -219 0
-144 -219 -252 -367 159 -247 264 -249 -331 205 -199 0
-242 -250 -202 -219 -137 150 -246 138 -254 0
-242 -250 400 -219 -137 -246 138 -254 150 -172 0
219 111 0
-254 -247 -407 -259 -261 150 -246 115 -369 0
-254 -247 -263 -240 267 -259 -249 115 -369 0
-171 -247 144 -244 -242 -152 0
115 -369 264 -171 -374 -137 270 -233 -162 377 -240 0
-113 250 263 -255 -171 375 -144 -242 -159 168 138 -232 0
-374 -375 -171 -233 -235 -261 -242 270 0
-137 323 -221 -256 -254 -250 319 -172 -257 -224 243 -168 -159 -180 205 -255 0
115 -369 255 205 247 252 216 -270 -202 211 257 -250 -137 168 0
264 -247 205 -199 150 -257 159 -249 115 -369 0
-243 -368 0
-368 173 0
-370 -221 -368 -333 -407 0
-221 -368 -333 -162 -160 0
-221 -368 -159 -168 -333 0
-157 -221 -159 -368 -333 0
-145 -368 -147 -333 -221 0
-368 -381 162 -176 268 -367 -336 246 -219 264 -180 144 -227 -261 -333 -221 0
-374 -221 -231 -333 -233 -259 270 -373 -368 0
-138 272 -202 168 -261 -263 243 -195 -255 -180 -153 -176 -256 -257 -192 0
-377 -232 242 -246 100 -192 156 -259 272 138 -254 0
-377 -250 -137 272 -242 65 -373 -183 -202 -259 156 0
415 219 264 -331 0
-407 -370 264 -367 415 -331 0
-367 -157 264 -159 415 -331 0
-145 415 -147 264 -367 -331 0
-160 415 -367 264 -331 -162 0
415 -367 -151 264 -153 -331 0
242 -201 -247 319 205 246 -369 -172 115 -137 -249 -152 268 -254 264 -257 415 -17 0
415 419 -367 268 264 -336 -371 -331 0
74 -374 415 -367 121 -372 270 269 264 -331 0
-374 415 264 -367 -411 -331 0
420 415 -367 -372 269 264 -337 -331 0
-412 -375 264 415 -367 -331 0
415 -367 -142 264 -144 -331 0
-135 -133 415 264 -367 -331 0
-165 -163 415 264 -367 -331 0
-136 -138 -168 213 -201 -267 -269 259 -194 0
-138 -136 -155 64 255 245 247 269 -146 211 -232 100 252 -261 250 0
-138 -136 -182 100 -263 250 -167 150 247 211 55 -246 162 269 -176 -261 -256 0
-138 -136 -261 -148 -369 246 -257 -236 -256 0
-138 -136 269 -224 -256 -152 55 -148 211 -257 247 246 0
-138 -136 250 -267 -261 -140 243 150 -224 259 368 246 162 0
-138 -136 270 -168 -255 243 -176 -256 250 -261 -257 213 -201 0
-138 -136 -168 259 269 -267 0
-138 -136 250 -176 -261 -243 159 -256 -257 -168 -249 0
-138 -136 249 -261 247 -257 269 270 -168 -243 0
-138 -136 -249 -261 -257 -180 323 269 -168 -243 0
-138 -136 -168 -256 -255 -247 -249 243 -257 -180 323 208 0
-138 -136 420 -372 -337 269 0
-166 -367 -219 264 -168 0
-166 415 264 -367 -168 -331 0
419 -166 -168 268 -336 -371 0
115 -369 -268 -410 -167 -159 269 -252 0
115 -369 -159 269 -252 -255 -204 -385 0
115 -369 211 141 -268 159 375 147 162 -249 269 372 0
115 -369 267 372 375 -152 -201 -202 -249 269 407 0
115 -369 267 407 371 -159 269 -250 0
115 -369 65 267 -152 209 159 -155 410 -259 -249 -146 269 0
-369 115 -249 -250 269 168 159 329 -252 -263 268 105 -337 -148 0
115 -369 -254 205 247 -152 55 211 270 147 319 269 -245 0
115 -369 153 168 156 147 -245 269 119 0
115 -369 247 -257 269 -407 0
115 -369 -226 150 -382 -246 -245 0
115 -369 -259 150 -246 -226 -407 0
115 -369 -226 -259 -155 -179 -246 248 -225 0
115 -369 375 -382 162 141 150 -246 -226 -255 0
115 -369 249 375 264 270 -382 -226 -210 0
-226 -247 252 -155 257 65 -250 -183 -141 115 -369 0
115 -369 -249 159 0
418 407 0
115 -369 -201 267 150 -249 -246 407 0
115 -369 168 -257 263 407 -269 162 255 -213 0
115 -369 -202 122 -261 -158 267 -249 -269 407 0
115 -369 -140 267 371 -269 162 -201 141 -249 259 407 0
115 -369 -158 -249 407 -202 267 -250 0
115 -369 -249 -158 -243 -195 407 267 0
115 -369 -393 267 407 -195 0
-418 -225 -243 -195 150 -246 0
115 -369 -377 168 372 150 -246 -418 -225 0
-247 -418 -152 -225 150 -246 0
-418 -252 150 -167 -246 -225 0
-252 -243 168 -418 -195 -225 0
115 -369 167 269 257 -141 -418 0
115 -369 -257 270 -418 -225 0
-224 250 -254 -111 -256 -261 162 0
-381 -224 -257 247 246 -136 -258 -337 -138 324 -148 -182 0
-224 162 244 -252 250 208 -256 -261 -137 270 -242 -167 -246 249 0
-127 -224 -257 -261 246 -256 0
-256 -224 367 242 -141 -137 246 -257 138 -254 0
-256 -141 -224 127 269 247 250 372 -150 -182 0
369 -259 -231 -219 208 -224 -232 244 125 -79 -411 326 -367 249 264 -331 0
375 121 55 -150 247 -337 -168 -256 250 -224 324 211 -258 0
-224 -381 -137 367 -17 205 264 -172 242 0
-224 -381 367 -17 242 -137 16 264 -172 205 0
-224 250 -172 264 -254 205 375 319 -17 162 415 242 -137 -256 0
-375 -261 372 -224 269 -246 -256 247 0
-127 -224 -256 247 -182 -261 269 0
-224 372 242 -246 269 -256 138 -254 247 0
-256 -231 -150 -232 -148 250 -224 -259 -261 0
-263 100 55 -202 162 -246 269 115 -224 -256 252 -192 121 -337 -261 247 250 211 0
-224 115 247 -235 372 121 -182 -148 268 -371 162 250 -261 324 0
410 -423 -155 65 -259 -224 250 -256 -235 0
-212 -267 371 270 250 -224 246 -256 -235 -180 162 211 0
-224 -381 51 -257 -49 246 47 371 210 0
-224 -381 100 -246 -263 -192 -235 250 252 0
-381 -374 -224 -232 -155 -259 246 270 268 -257 126 0
115 -224 371 246 -263 252 100 0
-127 -261 -263 252 -256 -192 -224 0
-224 -381 242 205 16 -172 367 -14 -254 0
-370 419 -371 268 -336 -407 0
-372 181 0
-138 -372 -150 121 -337 0
115 -369 168 263 410 -213 156 150 267 -372 -246 0
115 -369 377 100 147 269 -243 216 -195 267 -372 252 0
-370 -407 -337 -372 420 269 0
-157 420 269 -337 -159 -372 0
115 -369 267 -372 269 407 0
-375 420 -337 -372 -412 269 0
371 227 0
371 51 -419 0
115 -369 -252 -249 371 248 0
115 -369 159 124 410 -249 371 167 0
115 -369 159 -168 -267 124 -249 371 410 0
115 -369 -249 371 0
115 -369 269 211 205 162 159 124 141 410 -249 371 -146 0
115 -369 264 375 -172 371 -159 372 0
115 -369 -245 -372 269 264 371 -213 0
115 -369 -140 -259 -243 269 264 371 -159 0
115 -369 267 371 -393 -213 0
371 -245 153 -202 119 372 -250 147 246 0
-234 371 246 -257 119 -386 0
-333 115 246 371 -242 269 121 113 144 141 -372 -257 138 -254 0
372 371 -257 246 247 0
-261 -148 243 -150 -260 -221 -333 -236 -202 249 0
-221 -368 -333 -150 -156 0
-221 -377 -261 -235 162 -257 -263 323 250 246 243 -333 119 0
-415 -180 -368 -221 -381 268 -176 246 -333 -336 162 -261 -219 144 -227 0
115 -369 -333 141 113 371 -140 246 -257 0
-142 -144 -261 -221 -333 -260 -236 243 -202 249 0
-221 -333 250 162 -377 243 -257 323 371 246 119 -235 -263 0
-221 252 371 -257 119 323 243 -333 -263 246 0
-381 243 269 208 367 -221 242 121 -372 168 -333 -192 377 -263 138 -254 0
377 123 -263 156 -367 -375 -333 141 -202 -259 -219 -244 252 144 113 -261 -192 264 -331 0
-252 -374 -333 -140 270 -381 -137 144 246 113 168 -242 268 -257 126 138 0
-224 -381 -257 162 -333 113 246 -261 243 -140 250 268 0
-234 371 243 119 246 -411 -333 323 -257 -221 0
-374 126 270 -246 -14 -333 -221 144 -259 367 -256 -176 243 -232 150 123 138 -254 0
-333 -263 113 -261 252 243 -140 -144 -202 -156 -236 -246 -192 0
-142 -221 119 -333 323 246 -144 243 -257 0
121 -372 -246 -333 -221 -192 269 -242 243 -259 -263 100 252 123 138 -254 0
-333 -221 -368 269 -372 420 -337 0
-374 -227 -221 -233 -371 -368 270 -333 268 -336 0
-135 -221 -133 -333 -368 0
-165 -221 -368 -163 -333 0
-221 -412 -333 -368 -375 0
-221 -368 -333 268 -371 -336 419 0
-374 -221 -368 -333 -411 0
-410 -368 -373 -221 -333 0
-374 126 -259 243 270 -221 -236 385 -155 123 -261 -333 -235 0
-368 -221 -154 -156 -333 0
-235 -236 -156 -221 -333 -154 243 -261 0
-142 -221 -368 -144 -333 0
-221 -333 -368 -150 -148 0
-221 -368 -333 -168 -150 0
-221 -368 -144 -168 -333 0
-368 -221 -166 -168 -333 0
-192 -333 -256 -243 -250 242 -263 -202 -150 -246 252 -176 -156 138 -254 0
-221 -368 -367 264 -331 -333 415 0
-385 375 -219 162 144 -381 -333 -232 -176 113 141 -367 264 -331 0
-148 -192 252 243 -150 -263 -333 270 -221 249 0
367 -333 150 -372 -263 -192 269 242 -221 -167 121 -246 243 138 -254 0
-336 -373 113 -333 141 367 -227 -387 -371 162 -259 -261 -137 -140 144 115 -231 268 138 -254 0
-221 -368 -377 -333 -239 0
-235 243 -219 -221 150 -373 -261 -246 -259 -333 -242 -236 -231 138 -254 0
113 -150 -333 -250 -156 -381 367 -137 -17 242 -176 -202 264 205 -172 0
-221 -368 -333 -377 -263 0
-374 126 -333 -232 243 -410 -256 270 -246 -221 144 -175 123 0
167 113 -140 -367 168 -259 -231 415 -232 -333 264 -331 0
275 -277 322 255 0
-112 -244 -245 -146 -194 144 0
-244 -242 -146 144 -194 -245 0
-244 323 -137 -255 -250 -257 264 -159 243 -180 -172 205 -168 0
-250 -153 -259 -192 -263 150 -246 115 -369 0
-418 -250 400 -246 150 -225 0
115 -369 -249 377 252 267 -250 -210 0
370 372 147 159 -182 -202 -199 211 -250 -249 0
-153 -250 -368 243 -254 -246 -255 -168 -176 -256 138 0
115 -369 141 -255 324 -258 -202 159 -199 -249 -250 372 0
115 -369 147 -250 119 -245 0
115 -369 -250 147 -245 0
115 -207 374 -257 -250 270 -225 -369 0
255 -370 -202 -156 257 147 -250 -125 270 0
115 -369 -124 -250 -141 -226 -225 377 0
-250 -255 -257 -202 -252 246 141 -137 168 268 138 -254 0
140 372 269 -202 375 141 -199 0
-261 -248 162 141 -257 156 246 -243 371 -367 138 -254 0
-422 -243 -250 141 -202 -233 0
126 -374 270 141 -372 -250 269 -202 -243 0
269 -242 -250 208 -267 -246 -270 168 -202 -372 156 141 123 159 138 0
115 -369 -162 268 -148 159 270 269 -263 0
-138 268 -192 168 246 115 153 -255 -195 -261 -247 -176 -256 -263 0
115 -369 269 -179 247 -246 370 245 0
245 159 153 -182 -227 370 372 -419 -249 0
-267 259 321 -266 263 0
-377 259 -267 263 -266 0
-267 259 156 168 -102 263 -266 0
-393 -195 -249 159 0
-422 -243 -233 -246 150 -195 0
56 181 60 247 -182 -258 -58 211 0
-382 -226 -258 -58 -182 372 247 60 56 211 0
-423 -235 -58 372 122 -226 -382 -258 -182 60 211 0
-210 -138 -141 0
115 -369 249 -259 -250 270 264 -245 -210 0
-246 -371 0
-246 -144 -162 -247 -167 -252 0
-245 123 156 -246 147 -127 -381 -224 -261 150 0
-244 375 267 -247 -246 -159 -255 -176 -113 250 0
115 -369 -159 -232 -263 -259 168 150 -254 267 -246 0
250 -246 -267 159 -263 156 -247 150 -249 255 115 -369 0
-374 -235 270 -179 -261 -233 -246 -375 0
-267 162 -372 -250 270 269 -246 249 138 -254 247 0
115 -369 153 -336 269 162 257 141 205 147 410 -252 -167 0
115 -369 -252 245 257 255 259 122 269 141 -202 156 205 -250 -167 -336 0
419 227 268 -336 0
-157 419 -371 268 -159 -336 0
419 -138 -336 268 -136 -371 0
-234 419 268 -386 -257 119 246 250 -412 0
419 420 -336 268 269 -371 -337 -372 0
-374 419 -336 268 -371 -411 0
-264 212 263 259 -286 -331 0
-419 -227 205 367 -137 -128 147 -172 -254 -382 -202 -14 0
115 -369 371 153 168 156 147 372 119 -245 0
115 -369 269 263 -419 -181 243 -227 -159 177 0
115 -369 -245 153 168 156 147 -419 -269 -227 0
-419 -245 -202 -227 147 -250 0
-367 -336 264 -219 -227 -202 -261 -371 -375 268 0
-374 -239 270 -202 -137 -242 -377 -250 126 0
-377 -250 268 -202 272 111 242 -371 156 -259 -257 -148 138 -254 0
-377 -263 -250 156 111 242 -227 -202 -371 -231 -336 268 138 -254 0
-261 -236 -246 -377 242 -219 -17 -263 -202 138 -254 0
-239 -377 268 -336 -202 -227 -219 -17 -236 242 -371 -261 138 -254 0
-377 -239 -375 -371 -261 -227 -202 0
-377 -250 268 -257 -137 -148 -202 -371 -242 -263 0
420 -372 -337 -239 -377 269 0
-375 -367 -219 -202 -239 -377 -261 264 -331 0
-377 -239 -331 -367 415 264 0
-374 74 269 -377 -239 270 121 -372 0
-267 -377 259 -219 -367 0
-377 -239 -219 269 -367 121 -372 264 -331 0
-374 -239 -227 -233 270 -377 -371 268 -336 0
-374 -377 -333 243 -221 -239 -233 119 270 246 268 -257 0
-374 -377 270 -243 -242 -239 -140 126 138 0
-377 -239 -336 419 268 -371 0
-239 -377 -259 -373 -231 -375 -261 -202 0
-377 -239 -371 -367 268 -219 -336 -227 264 -331 0
-221 -377 -137 -263 268 -336 242 -333 -219 -227 -371 243 264 205 -331 0
419 -160 -336 268 -162 -371 0
393 -255 372 375 55 211 -219 -419 269 246 -227 -367 -202 119 247 0
-226 -382 -260 252 -125 -263 100 0
-382 113 -226 -125 -260 243 0
371 367 242 -137 -172 -254 319 246 205 -17 0
-385 -381 374 -176 144 156 326 367 249 138 -254 0
-232 -367 268 125 -79 -219 246 374 64 326 -186 -259 -257 249 264 -331 0
-79 -257 -259 374 156 326 168 268 246 -367 -219 -252 125 249 264 -331 0
369 208 246 -257 244 -224 74 -158 -157 -234 210 46 -138 -260 -136 0
-157 -375 -159 -235 -261 0
-157 -250 -159 243 -140 264 -252 -202 144 -256 205 -136 -255 168 -172 0
-121 -252 168 156 -242 -257 -258 246 123 138 0
375 -137 162 -258 123 -252 -242 250 -167 -121 156 138 0
-245 -369 -259 153 -146 -155 -247 65 -256 410 0
115 -369 -235 65 250 -269 -155 257 -232 -412 -209 0
-299 -290 207 252 100 243 -270 115 -369 0
311 -290 247 250 -202 -168 -171 -270 115 -369 0
-301 -290 -270 100 -202 250 252 115 -369 0
-267 -269 252 -246 208 141 -140 244 -186 -263 374 243 249 0
115 -371 268 208 -261 -202 244 -227 -158 270 -375 73 213 249 -336 -235 0
244 369 -258 -121 208 -140 -243 -242 138 159 213 270 0
372 -121 0
-121 -258 -257 -371 -148 0
-121 -257 -260 246 -258 249 0
-235 250 -257 -258 246 -121 162 0
-121 -258 -257 242 246 138 -254 0
105 123 -242 -121 -243 156 -140 168 -195 -192 -258 138 0
-381 -140 123 -121 -242 156 -243 -258 144 138 -254 0
250 -140 -242 -243 156 -258 123 375 -121 162 138 0
-337 -221 -381 -138 115 -261 -172 121 250 269 -246 268 243 -168 -255 -176 -331 -372 0
-289 -337 259 263 156 -269 0
-420 121 -246 -201 150 -249 0
-420 377 -382 -246 -226 150 121 168 0
115 -369 -168 257 -155 65 -249 -420 410 0
115 -369 -172 121 205 159 -232 -385 -254 -249 -420 0
-420 121 -246 150 -219 -242 138 -254 0
-381 -261 121 -242 162 -227 250 144 268 -420 -371 -336 -194 0
-420 -375 -202 121 -227 -261 268 -336 -371 0
-420 -140 138 121 -242 -243 0
115 -369 121 -412 250 162 -420 -259 124 0
-420 -252 121 -167 -246 150 0
-244 -243 144 -420 -195 121 0
171 242 -14 16 -172 205 -254 0
-236 242 16 -14 -387 -172 367 205 -254 0
-234 242 -254 -172 -14 -386 367 16 205 0
-423 -235 -254 -158 -14 -386 -246 367 205 138 159 150 -172 0
-14 -49 16 47 -257 371 367 210 242 -172 51 -254 205 246 0
149 -242 150 138 -254 0
259 -267 -173 252 -195 367 -270 0
-375 -243 -173 -367 415 264 -261 -136 -202 0
-173 -373 -367 -219 -231 -243 -259 264 -331 0
-369 115 153 -226 250 162 -140 -257 -173 -243 156 -269 -270 -248 0
115 -369 -173 -257 -386 -243 0
-369 -256 -173 -372 269 -243 0
-108 -239 0
-272 -239 0
263 -239 216 0
107 -105 -239 100 0
-176 -381 -162 -111 -141 -243 -256 168 269 -252 -192 372 -257 -254 0
250 -261 -246 -202 -263 -224 -192 -256 252 0
240 -423 156 168 -67 -248 -263 377 -235 -192 0
-111 250 270 -261 -186 -202 249 -254 0
-221 374 -263 -192 252 243 -246 -186 249 0
-421 -231 -152 -247 150 -246 0
-231 -247 -226 117 -412 -232 -259 -210 115 -369 0
-231 -247 117 270 -412 -232 -259 -210 115 -369 0
-247 -231 -255 267 -232 -412 -140 243 -259 -210 115 -369 0
115 -369 377 -259 -146 159 -249 -231 410 0
-421 -231 -249 -146 -245 159 0
115 -369 -259 -250 147 -243 -202 -195 267 -232 -231 0
-421 -231 -146 -247 -245 153 0
-272 -231 -369 -247 243 -259 117 132 269 -150 115 -232 0
-231 261 -232 -259 267 -272 243 -270 -247 -150 115 -369 0
-272 -231 -232 -270 -247 243 -259 117 132 -150 115 -369 0
-373 -231 -259 -150 -148 0
-373 -231 -150 -259 -168 0
-421 -231 -219 -242 -246 150 138 -254 0
-393 121 269 -372 242 -195 -231 -259 156 138 -254 0
-231 -373 -259 -150 -141 0
-421 -231 -243 -195 -246 150 0
-375 -235 -219 -261 -373 -231 -367 -259 -202 264 -331 0
-373 -375 -367 -235 -261 -231 -259 415 264 -331 0
-374 -231 -375 -261 -235 -259 -373 -233 270 0
-144 -141 -259 -373 -231 0
-373 -367 -371 268 -336 -259 -219 -227 -231 264 -331 0
-261 -231 -242 -14 -246 125 -259 150 367 250 -373 -186 270 162 249 138 -254 0
-377 -239 -371 250 -227 -231 -261 -232 268 -336 162 0
-373 -368 268 -336 -333 -259 -221 -227 -231 -371 0
-234 -372 168 156 -252 -386 -231 269 121 -242 -259 138 0
-234 -231 -232 244 -256 208 -386 -246 0
-231 -219 270 -202 411 113 -333 -232 141 -250 -259 -367 249 264 -331 0
-105 377 100 -192 0
-240 377 -17 -137 367 242 138 -254 0
-240 119 371 377 246 323 -257 0
-240 372 324 -182 211 -152 -61 247 55 377 -258 0
369 -240 -246 377 -176 -242 -137 144 150 138 -254 0
-240 377 205 -172 16 242 367 -14 -254 0
-240 368 377 243 0
115 -369 -240 377 -140 243 -255 0
115 -369 -261 377 -254 205 11 -375 -137 242 -240 0
115 -369 125 -423 270 249 -157 -240 -235 377 0
115 -369 249 159 377 270 -186 -240 -227 -419 0
115 -369 247 -152 55 269 -423 377 -235 -240 211 -256 250 0
-240 51 377 -257 210 47 371 -49 246 0
-240 -58 247 372 -258 56 377 60 -182 211 0
-145 -159 -147 -138 0
-147 -145 -150 -138 0
-145 420 -372 -147 269 -337 0
-145 419 -336 -147 268 -371 0
-289 -322 -269 359 0
115 -369 156 -235 -423 245 124 -407 0
115 -369 -269 -407 -235 -155 65 -232 245 -423 0
-235 259 -375 -269 245 -256 370 -369 0
-369 115 -243 -375 240 -235 -263 -126 0
-423 240 -263 -192 159 -126 -114 -235 377 0
115 -369 -226 100 -375 252 -235 -263 -382 0
-235 -138 -369 -375 -256 -267 147 0
-235 -375 147 -369 211 -267 -256 -247 0
-423 -235 147 211 -122 115 -369 0
-235 -423 -211 115 -369 0
-235 -375 -168 -153 0
115 -369 -235 -182 372 240 -159 -263 247 211 -58 -375 -258 -255 0
-235 -375 -148 -48 159 120 372 249 156 211 255 259 141 138 254 115 -369 0
-235 -375 -261 -138 -147 0
-138 -235 -150 127 -375 -369 -256 0
323 -407 367 147 -172 16 210 -254 -423 115 -224 -257 -194 -235 205 246 371 51 -52 -14 0
-235 -138 -153 -375 0
-224 -381 -168 -243 246 -137 -257 264 -235 -172 205 -159 0
115 -369 159 -423 -240 -235 377 270 -146 -118 0
115 -369 -407 -423 -252 -141 -235 0
115 -369 168 -382 -226 -375 -137 -235 -263 -242 0
-374 -261 -235 270 -246 -219 -375 -168 -242 126 138 -254 0
-382 -226 -49 -257 51 246 210 47 371 0
371 51 -234 -49 210 -257 -386 246 47 0
-236 -387 -257 210 371 51 -49 246 47 0
372 374 249 -234 -250 270 -202 371 -199 51 -52 323 -257 150 -148 0
-58 51 -257 371 -258 -182 247 56 60 246 47 210 -49 211 372 0
179 47 210 -257 51 -49 246 0
368 221 0
23 221 -174 20 113 -173 0
375 250 268 247 210 246 -141 162 269 -139 0
-139 -375 -261 -235 -141 0
-371 -141 -336 419 -139 268 0
-139 -141 -367 -219 264 -331 0
-139 -141 415 264 -367 -331 0
-139 -374 -233 -141 270 0
-371 179 0
327 316 0
-282 327 -266 -287 0
327 -282 -290 -270 0
327 -282 -281 -339 0
-282 327 277 -267 0
-277 -282 327 322 0
327 -282 -289 -269 0
327 -282 279 -337 0
-282 -292 327 -272 0
-282 327 -286 -264 0
83 202 327 -261 0
-282 327 -288 -268 0
275 -282 327 255 0
282 -277 261 322 0
-267 -248 156 -242 -270 371 246 252 -269 144 -257 159 138 153 0
-244 -250 144 -137 -242 -202 0
-267 141 168 205 144 162 -136 259 -150 -148 -269 0
-381 -235 371 -180 162 250 121 144 246 -261 269 -242 -372 -194 0
-381 375 162 150 -219 -242 -137 -176 144 -246 138 -254 0
-244 -137 121 144 -420 -242 0
-314 -280 -269 325 -289 156 0
-314 325 261 282 -280 156 0
-314 325 -292 -280 -272 156 0
-314 325 -342 -284 -280 156 0
325 -314 -288 -280 -268 156 0
325 -280 -267 277 -314 156 0
-339 -280 325 -314 -281 156 0
-314 325 -280 275 255 156 0
-314 -280 -333 325 -275 156 0
-314 -280 325 -290 -270 156 0
-314 325 -280 279 -337 156 0
350 -314 325 156 0
325 -314 -278 -336 -280 156 0
322 311 0
-277 322 -269 -289 0
-277 322 -288 -268 0
-277 322 259 280 0
-277 322 -290 -270 0
-277 322 -281 -339 0
-277 322 -278 -336 0
322 -277 279 -337 0
197 39 322 267 0
322 -276 321 -267 0
-277 322 -287 -266 0
-277 322 325 -280 -314 156 0
-277 322 -333 -275 0
-277 -292 322 -272 0
-277 -342 322 -284 0
-277 -264 -286 322 0
-274 -277 322 -331 0
-277 -276 321 -318 342 -266 168 -269 153 0
-277 322 -276 321 0
43 -277 322 -177 0
-273 -277 -332 322 0
359 311 0
359 -322 -288 -268 0
359 -322 -287 -266 0
359 -322 275 255 0
359 -322 282 261 0
359 -322 -270 -290 0
359 -322 -272 -292 0
359 -322 280 259 0
197 39 359 267 0
-318 342 153 321 -266 168 -269 -267 0
364 316 0
364 -327 -288 -268 0
364 -327 -289 -269 0
364 -327 -287 -266 0
364 -327 275 255 0
364 -327 280 259 0
364 -327 277 -267 0
364 -327 -292 -272 0
364 -327 -286 -264 0
364 -327 -290 -270 0
83 202 364 -261 0
366 72 -329 280 259 0
385 -261 323 -259 -242 -255 -155 141 246 -140 371 64 162 -137 -257 138 0
-280 -287 -314 -266 325 156 0
-176 250 -269 -252 254 -147 -159 156 259 168 138 -255 -244 -113 375 0
-176 263 250 -264 -159 156 259 168 138 -255 -244 -113 375 0
-176 252 -337 138 113 -172 121 -263 -242 -255 -246 243 100 -256 -254 -162 0
-244 -242 150 144 -246 -176 138 -254 0
-244 -374 264 -246 162 -192 144 269 -141 252 -263 150 205 -367 100 -261 -254 -176 259 0
250 -261 -252 113 -195 168 -111 144 -176 -256 162 -254 0
369 -176 -257 144 -259 270 269 -242 246 -372 156 249 138 -254 247 0
-381 -374 270 -259 -242 144 -155 250 -375 -176 -261 162 249 138 0
-176 105 -242 -195 377 168 369 -263 144 -243 138 -254 0
-252 -374 270 -256 -261 -176 367 168 144 -246 -137 162 126 138 -254 0
-374 126 -242 144 -256 168 -176 -252 -137 -261 270 -246 162 0
-176 123 156 -192 -256 242 -367 -243 -259 141 144 208 -219 252 -246 -263 377 138 -254 0
-176 -242 243 -258 138 252 -337 -263 -192 -254 -255 -261 -256 -246 100 -172 0
-176 -256 377 150 242 -243 208 168 -263 -195 -192 -246 144 138 -254 0
377 252 29 -256 -192 -263 -176 -246 242 244 208 138 -254 0
369 -176 156 -263 -385 -242 377 144 252 -192 138 0
-381 372 252 -261 -367 247 -254 -192 -263 -176 269 162 -142 0
175 -242 -246 -176 -137 144 150 0
367 -232 162 -137 141 113 150 -259 -261 -255 144 -256 -176 -246 138 -254 0
280 350 0
-282 327 259 280 0
-321 -292 358 -272 0
126 -374 -144 -148 -371 270 -142 -257 0
-142 419 -336 -144 268 -371 0
-175 -242 -246 -244 150 138 -254 0
-374 -244 -375 -175 -233 -261 -235 270 0
-374 -227 270 -244 -175 -371 121 -372 268 -336 126 0
-175 -244 -252 -167 -137 -242 0
-231 -373 -175 -367 -259 -219 -244 264 -331 0
358 310 0
-321 358 -290 -270 0
358 -321 -286 -264 0
-321 358 -289 -269 0
358 -321 275 255 0
-321 358 282 261 0
358 -321 259 280 0
358 -321 277 -267 0
196 30 266 358 0
-238 -388 371 246 210 -257 51 -49 47 0
-238 -388 -14 242 16 367 -172 205 -254 0
-238 -388 243 368 0
-238 -388 -58 60 56 -182 372 -258 247 211 0
-376 -237 239 -263 0
-404 -378 415 264 -367 -331 0
-404 -378 420 269 -372 -337 0
-404 -378 -333 -221 -368 0
-404 -378 -336 268 419 -371 0
-378 -217 239 -263 0
-285 -265 358 -321 0
-285 -265 322 -277 0
-285 -265 359 -322 0
-285 -265 -282 327 0
-285 -265 364 -327 0
-285 -265 -280 325 -314 156 0
-273 -332 325 -280 -314 156 0
-273 -332 -282 327 0
-165 -163 -336 268 -371 419 0
-129 -262 239 -263 0
-218 -390 -14 242 16 367 -172 205 -254 0
-218 -390 -58 60 56 -182 372 -258 247 211 0
-218 -390 371 246 210 -257 51 -49 47 0
-218 -390 243 368 0
-109 -253 239 -263 0
-135 -133 -336 268 -371 419 0
-291 -271 358 -321 0
-291 -271 322 -277 0
-291 -271 359 -322 0
-291 -271 -282 327 0
-291 -271 364 -327 0
-291 -271 -280 325 -314 156 0
-283 -341 325 -280 -314 156 0
-283 -341 -282 327 0
-283 -341 -277 322 0
-413 -376 415 264 -367 -331 0
-413 -376 420 269 -372 -337 0
-413 -376 -333 -221 -368 0
-413 -376 -336 268 419 -371 0
115 369 -257 252 144 100 270 -242 -372 269 246 -263 249 -194 0
-227 162 249 73 -419 270 -158 -242 144 -176 213 -261 369 -137 125 0
-212 -252 268 125 -79 -367 -219 246 168 326 374 369 -257 249 264 -331 0
-374 242 270 -243 123 208 -219 269 156 141 369 -372 -259 249 138 -254 0
115 -369 -249 0
115 -369 -147 0
115 -369 -181 257 0
115 -369 -199 -254 138 257 0
115 -369 159 -257 -167 -252 138 264 -249 0
115 -369 -162 269 141 374 270 -243 0
115 -369 -226 -257 270 267 210 168 118 159 205 -167 264 -252 374 0
-374 -367 162 -176 252 259 -150 -141 100 264 205 269 115 -263 -254 -192 -261 0
-369 115 250 -270 259 -257 147 162 211 -195 156 -140 -243 0
115 -369 411 -257 255 270 205 -269 168 0
171 -392 -267 144 259 138 159 -269 115 -168 -254 0
115 -369 -269 -270 263 255 0
115 -369 255 375 -267 159 -246 247 -270 -168 -148 0
367 115 242 -246 -167 150 -252 -137 144 264 205 -172 0
115 -369 -250 -158 -419 249 -157 269 -337 -202 -152 270 -227 0
115 -369 -140 263 -270 -212 -179 147 247 -267 -246 243 0
115 -369 168 367 -254 205 -172 -419 374 -263 159 -137 -158 -227 125 -14 0
115 -369 -263 105 375 270 213 -202 -186 100 156 183 0
-369 115 375 -226 -269 -207 270 250 411 0
115 -369 371 -257 -269 -141 407 261 0
115 -369 269 250 270 -140 162 -199 -243 375 0
-374 74 -333 -260 -157 -185 371 -158 -137 -242 246 -168 -368 115 -221 -176 0
115 -369 -199 250 124 -202 269 -259 141 -412 -243 0
115 -243 -279 -242 144 141 372 138 -254 247 0
115 243 -246 368 156 144 -248 -242 138 0
-415 -261 -219 -259 -231 115 150 -232 144 -246 162 0
-415 -232 -219 -261 115 -259 -231 144 168 -252 208 162 0
367 115 -246 -263 -192 -17 242 -167 377 150 144 138 -254 0
115 -369 -270 -181 124 211 261 -227 162 -419 255 0
115 -183 -232 -267 -167 -250 -369 -155 268 -202 -252 -270 65 0
115 -369 249 213 -248 270 -232 0
250 -261 -138 257 168 -255 -176 -113 -249 224 0
-226 -381 -224 -125 211 257 247 147 255 -260 0
115 -369 -159 257 -269 0
115 -369 -212 159 -249 -269 257 0
115 -369 -159 257 -269 147 -195 0
115 -369 147 159 -195 -249 -269 257 0
115 -369 407 141 156 243 159 -249 261 257 0
-407 257 -153 -158 159 -249 115 -369 0
115 -369 -168 -155 156 65 -249 257 410 0
115 -369 254 -259 270 -140 138 211 147 162 261 -195 257 -243 124 0
115 -369 250 257 -269 -141 0
115 -369 257 147 -245 0
115 -369 257 -269 0
115 -369 263 -226 250 -232 -257 -249 124 255 0
115 -369 162 -226 147 257 -269 255 0
115 -369 150 -268 -267 255 0
-267 261 -272 255 147 0
-267 255 -269 147 259 0
-267 261 -269 255 162 0
263 255 153 259 168 -269 0
-272 255 168 261 257 120 0
-272 255 141 120 257 261 0
-127 255 245 269 100 247 -152 55 211 252 -261 259 0
-115 127 -269 246 156 259 150 255 -236 141 -256 0
255 -269 168 122 153 263 -270 0
-267 255 243 168 141 -270 263 159 0
115 -369 255 -227 -270 124 156 263 -419 0
-144 -243 -162 -195 -246 -247 0
115 -369 320 267 -139 -182 211 147 -174 -195 159 -249 -243 372 0
-250 -243 -246 141 -202 -198 0
-243 375 159 -111 -168 -246 -254 270 -176 369 0
-261 -248 144 -256 -111 -243 141 156 162 -254 0
-250 -243 268 119 252 -202 -192 242 -263 246 -156 -257 138 -254 0
-374 242 -243 -259 141 -137 250 156 270 -261 162 249 138 -254 0
121 -372 -252 -246 -242 -219 269 -243 138 -254 0
-168 -243 269 121 -219 -246 -372 -367 264 -331 0
-374 -243 270 -252 -195 -219 168 -233 -367 264 -331 0
-243 -242 269 121 -195 -244 -246 -372 138 -254 0
-243 -195 -219 -242 -246 150 138 -254 0
-374 126 270 -243 -372 269 -246 -195 150 0
179 -242 -219 -195 -254 138 -243 150 -172 0
-242 -243 -137 -246 -140 -179 0
372 -243 -202 -219 -375 -235 -367 -182 156 -261 -259 141 264 -331 247 0
-423 -235 -195 -252 168 -243 0
-419 -227 -243 -202 -250 141 0
-243 -195 -246 -137 -242 150 -219 138 -254 0
-392 -243 -194 -195 0
-419 -227 -243 -195 168 -252 0
-422 -243 -195 168 -252 -233 0
252 -257 -243 374 -186 -242 268 -263 246 -140 249 138 0
-252 -137 -242 -243 -195 168 138 0
-415 -243 -195 -246 150 -219 0
-244 -243 -259 -182 144 -367 123 141 -219 156 372 264 -331 247 0
-243 -261 -202 -375 -195 -367 150 -219 -246 264 -136 0
-256 -224 -243 -261 -420 -242 -172 138 -258 -195 141 162 16 0
126 -252 270 -195 -261 -374 168 367 162 -243 138 -172 0
-235 -180 -259 -140 -373 141 -155 371 -243 -261 246 -242 162 138 0
-259 250 -261 -242 385 -155 -374 -140 -243 270 162 249 138 0
-374 126 270 -243 -367 -219 -246 -195 -144 264 -331 0
-385 -381 156 144 -140 -243 -242 138 -254 0
191 -137 -242 -243 -195 168 0
410 261 263 -140 -369 -243 371 -257 -259 -270 115 147 -155 0
-244 -258 242 123 156 -121 144 141 -243 138 -254 0
123 385 65 269 -195 121 -243 -246 150 -155 -372 122 0
-244 -243 -246 168 144 -195 269 242 372 -263 138 -254 247 0
-374 -243 -219 -367 -195 150 -233 -246 270 264 -331 0
375 141 -246 -202 -243 150 159 -386 213 0
123 -232 -195 -137 -259 367 270 -246 -243 150 249 138 -254 0
-369 410 65 -155 -243 -252 -259 -256 -195 168 0
377 -381 -243 -17 -263 144 -195 367 -192 168 208 242 138 -254 0
123 121 -372 242 367 -246 269 -195 150 -243 156 138 -254 122 0
-198 -396 -140 -243 0
-243 121 -195 -235 -261 269 -236 377 -263 -192 -372 168 367 242 138 -254 0
-247 -162 105 -244 -252 -167 -246 216 -176 0
-162 -247 -252 -244 -195 -243 168 0
-213 -150 -162 0
-159 -150 -162 0
-153 -162 367 243 -252 113 -333 115 168 -194 205 -176 -254 0
115 -369 -162 150 -246 0
-153 -162 -150 0
-138 -162 -246 -192 -140 243 100 272 -263 -258 -255 252 -256 321 0
115 -369 259 147 150 -162 372 -246 0
105 -167 -176 -246 372 -252 -162 367 -255 269 168 243 138 242 -256 -254 -172 0
-153 -162 -244 -247 -195 -246 -243 0
115 -369 -263 168 -195 -162 124 -243 0
-160 420 -372 -162 -337 269 0
270 -162 -247 168 269 115 -369 0
-138 -162 168 -263 -243 -270 -267 259 0
115 -207 -167 74 270 -369 -245 411 -252 0
115 -369 -257 270 -147 0
115 -369 270 -147 0
115 -209 -155 -183 65 264 -259 -250 270 -369 410 0
242 250 -261 -219 268 270 246 -257 162 249 138 -254 0
126 -374 -375 -261 270 -219 -202 -367 264 -331 0
-374 412 270 268 -233 -235 -227 -336 -261 -371 -202 0
126 -374 -371 -367 270 -219 268 -336 -227 264 -331 0
-247 150 -246 115 -369 0
-124 -113 375 -272 -242 150 -255 153 250 138 -269 168 147 156 0
-252 -242 138 168 -172 -254 150 -246 0
-374 -372 270 -233 -246 150 121 -219 269 -242 399 138 -254 0
126 -374 400 270 -246 -219 -367 150 -250 264 -331 0
-252 410 -219 -167 -367 150 -155 -259 -246 0
-139 -261 -192 -141 162 208 247 211 210 -256 -176 144 153 269 150 -182 268 -263 0
-372 374 -246 -367 269 150 121 -259 156 -219 -250 270 -202 249 264 -331 247 0
140 121 269 141 156 -372 242 123 -259 138 -254 0
115 -369 147 -155 -259 150 267 -246 410 0
115 -369 -255 -250 -382 267 -150 -259 0
115 -369 -259 -252 -159 -254 -232 407 267 0
115 -369 -269 410 162 267 261 156 -371 407 0
-288 261 -269 -268 0
-211 175 -176 -120 -415 -219 0
-138 -211 -141 0
115 -369 -411 156 177 261 270 -419 -257 162 147 263 255 0
-247 -411 153 -259 65 125 326 -155 -79 147 -245 115 -369 0
-374 420 -372 -411 269 -337 0
-144 -374 -150 -411 0
-374 -252 -367 168 -233 270 -219 -250 -202 264 -331 0
-374 -367 -233 -219 -419 270 -227 264 -331 0
-185 -374 -371 -367 -233 -219 270 268 -336 -227 264 -331 0
-374 -185 -235 -233 -375 -219 -261 270 -202 -367 264 -331 0
123 250 -233 375 124 -261 -367 -374 -219 270 -259 162 249 264 -331 0
-374 -367 -336 259 -219 -267 -227 -371 264 -233 268 0
-153 -144 -150 0
-144 -153 -141 0
-153 -159 -205 0
-153 -159 -138 0
-138 -153 -150 0
250 -153 -261 243 -254 -255 -246 -168 -256 368 -176 0
-153 -371 -141 -227 0
-138 -153 -141 0
-168 -153 243 368 -255 -246 -254 -176 -256 138 -261 0
-168 -153 -336 250 243 -140 -227 -255 375 -180 246 -257 -261 0
115 -369 147 -195 257 -269 156 243 0
372 123 -257 -242 -252 168 -119 -182 156 138 247 0
155 -252 168 156 0
-234 272 -192 252 -259 -232 -144 156 -386 -150 0
-225 -247 -232 -410 -263 -210 115 -369 0
115 -369 -257 270 -225 374 0
254 259 250 159 -269 -144 156 375 -255 -168 -113 -249 0
115 -369 -257 156 -167 259 -159 -252 0
243 -252 -136 -267 259 -159 -195 205 -269 168 0
-264 259 -269 255 -158 -249 0
263 261 -267 162 259 168 147 0
261 -267 259 168 162 263 0
-247 259 -252 249 255 -150 115 -369 0
261 263 156 -269 168 153 259 0
-138 259 153 -202 168 -337 -263 272 -270 -250 -267 0
-267 -269 205 -168 259 0
-138 259 246 -192 -270 141 -267 -182 247 159 0
255 156 263 259 393 -270 0
-288 -267 -268 259 0
-264 259 -331 -267 263 0
-415 369 208 -267 168 259 144 -252 -219 125 249 0
115 -369 -167 159 -249 410 -252 0
115 -369 -257 -167 -159 410 -252 0
115 -369 -259 247 375 269 -245 410 -213 0
115 -369 -259 410 -177 252 267 -231 377 0
410 123 -155 -250 -259 -183 65 -137 -202 -242 0
121 410 269 -155 -259 -219 270 -372 -367 249 264 -331 247 0
410 -369 -243 65 -250 -155 -256 141 -259 -183 -202 0
-127 -381 123 156 -155 -261 248 -224 0
-232 -247 -226 270 -225 -410 -210 115 -369 0
115 -369 -385 168 257 -249 167 -232 0
115 -369 -257 -371 124 -249 167 -232 0
115 -369 -249 -259 -257 -158 250 150 -232 -412 0
-381 -176 -137 367 144 -248 -232 138 -254 0
-381 -176 144 -248 111 -385 -232 -137 367 138 -254 0
-232 -252 -242 -261 -155 -235 270 -137 -259 168 162 249 0
-250 269 -259 -242 65 -155 -232 270 -202 -372 -183 -137 -373 249 247 0
-232 368 243 -385 0
-247 -244 -252 -152 144 -192 168 0
-394 -247 -152 -143 0
-247 263 -259 -243 -150 115 -369 0
-247 121 -150 115 -369 0
-367 -247 -150 -199 159 -331 264 -249 -219 205 -252 0
-245 -247 270 -232 -231 -259 -210 115 -369 0
-221 -247 -369 -333 243 115 -256 -158 -249 -236 -202 -261 -152 0
-122 -247 -263 267 -259 -249 115 -369 0
-205 -247 240 272 159 -249 115 -369 0
-138 -247 -141 -263 -261 -176 -192 -256 268 0
-423 407 -235 267 -375 0
-374 -235 270 -246 -242 -261 -141 -375 126 138 -254 0
-374 126 -155 -259 -252 -137 270 -167 385 -242 0
-373 -231 -150 -259 -144 0
-144 -410 -150 -373 0
-142 -336 -261 162 -227 250 -144 -155 -259 -373 246 0
-142 -373 -144 -259 -231 0
-375 -235 -167 -202 -373 -252 -259 -137 -261 -155 -242 0
-373 121 -219 -367 -410 269 -372 264 -331 0
-373 420 -337 -372 -410 269 0
-374 -132 -231 -244 -259 -373 144 270 -233 168 0
-252 -244 -259 162 367 -373 -155 144 242 -261 -167 138 -254 0
-113 368 0
-113 -221 0
-221 -113 320 -333 -174 0
-113 -255 -256 168 250 138 -261 -159 0
-113 250 -146 147 -264 -272 245 168 375 -269 138 -255 0
368 -113 25 0
-221 -113 -333 25 0
263 -113 147 -264 -269 159 138 168 -144 -255 375 -249 250 0
-171 250 -176 -267 -152 144 375 -255 138 -113 210 -242 156 224 150 0
-387 368 -236 243 0
-236 -148 -260 242 -261 -150 -17 -219 -202 249 138 -254 0
368 -235 -227 -371 -259 -231 -336 -155 -236 -261 -242 243 268 -202 138 0
-377 -263 -236 243 -221 -202 -246 -261 0
-387 -176 -236 319 -183 -254 -17 -172 138 224 367 -248 144 0
375 -183 -182 -61 372 -202 156 168 105 377 -263 153 -248 269 0
115 -369 -158 -269 270 243 150 -246 162 147 -226 250 -407 374 0
-234 60 211 372 -386 -58 -182 -258 247 56 0
155 -423 156 -235 0
-144 -150 -147 0
-244 -176 -246 -247 144 -147 -159 0
-141 -150 -147 0
115 -369 372 -382 150 -246 259 -147 0
-168 -147 -138 0
115 -369 269 -250 -254 -147 -252 0
-369 115 -168 -159 0
-180 -235 -168 -137 250 246 264 -159 -367 -257 0
-224 250 -255 243 -195 -261 -159 -168 -256 0
-375 -412 -235 -168 -159 0
254 -168 259 144 147 156 210 150 -269 -244 375 -255 -113 250 0
-375 -367 -235 -137 264 -159 -168 0
-369 -261 -159 111 -256 319 -254 -236 242 -168 -172 205 -137 0
-180 323 -256 -255 -224 -257 246 -168 113 243 -159 0
323 -224 -256 -243 -159 127 -257 264 -180 -168 246 -137 205 -172 0
-224 -261 -256 -243 -257 264 -159 323 -180 246 -168 205 -172 0
-256 -120 -261 -168 250 -243 264 -224 -140 -172 205 -159 0
-255 -176 -180 264 -256 -159 -168 243 -261 -257 268 205 -172 0
-235 250 246 -159 -168 242 -257 -137 323 264 -172 205 -180 0
-236 -235 -168 323 242 -137 367 246 319 -254 -257 -159 -180 -172 205 16 0
-168 -269 259 -267 205 -159 0
-176 -243 264 -256 -159 -168 -261 -172 205 -246 0
-371 -227 -336 -159 -168 0
-392 -256 -159 -195 243 -261 -255 -168 0
-138 -168 -176 269 -182 -261 -337 -243 -255 -246 -256 0
-138 -168 269 -140 243 247 -255 -256 -224 0
-138 -168 -176 246 -336 -195 -261 243 -180 -255 -256 -257 -247 0
-138 -168 -371 -227 -336 0
-138 -168 -336 375 -333 113 243 246 -247 115 -195 -176 -180 -257 0
-138 -168 121 -420 -337 -372 0
-144 162 250 246 -168 270 -261 -257 249 0
372 -144 242 269 111 -168 138 -254 247 0
-371 -227 -336 -168 -144 0
-176 -256 -168 156 -259 -137 -246 -261 270 -186 162 249 138 -254 0
-144 -168 -150 0
420 -372 269 -337 -168 -166 0
239 -252 0
-144 168 -247 -246 -159 -252 0
-244 -252 -247 -382 -192 -245 168 -159 375 162 0
115 -369 -249 -252 0
115 -369 -259 267 -412 -407 -232 -235 264 147 -159 -252 0
115 -369 267 370 -235 -412 264 -259 147 -159 -252 0
115 -214 -270 247 168 -369 -252 269 0
121 -372 -141 -252 -246 -242 269 138 -254 0
-252 -141 -156 -242 -246 138 -254 0
-374 -252 269 168 121 270 -372 -233 -242 -194 0
-112 -374 -252 -371 168 -242 -233 -227 -336 -194 0
-252 -400 168 -202 0
-252 -167 150 -415 -246 -219 0
-244 -137 144 -252 -167 -242 0
-244 -415 -219 -167 -252 144 0
175 -137 -252 -167 -242 144 0
-242 -256 144 270 -246 -137 -232 -259 -252 168 249 0
-252 367 144 168 -259 -256 -246 -261 -137 -232 242 162 138 -254 0
263 -264 147 150 153 144 138 168 224 375 -255 -176 -113 250 0
115 -369 -201 150 -249 -246 263 0
115 -209 -249 168 159 150 -246 263 -369 0
-113 -255 -256 250 -249 -261 0
-415 -267 263 -120 -219 168 259 -256 -367 0
-176 -252 -254 162 168 -246 -111 -261 144 -256 150 0
-256 -224 243 250 -148 162 -261 -150 -255 -195 0
-123 -259 -137 -260 367 208 144 -256 -261 -14 162 249 205 -254 0
-256 -224 243 -260 -246 150 368 249 0
-205 -159 -150 0
-205 -141 -159 0
-138 -207 269 249 55 211 150 -263 247 168 -182 -192 -246 -176 -261 147 -256 162 0
-138 -159 -150 0
-209 -138 -150 0
-138 -209 -159 0
-138 -141 -159 0
-221 -138 -153 -333 -368 0
-221 -138 -136 -333 -368 0
-226 242 205 16 -14 -382 -254 -172 367 0
250 -261 269 242 246 -372 -257 162 138 -254 247 0
-367 171 0
126 -374 -187 -367 -250 270 -219 264 -331 0
-375 269 -261 -202 -372 -219 -367 121 264 -331 -152 0
-144 -219 -367 -168 264 -331 0
-248 -168 113 156 -260 -259 219 -150 -111 -333 147 -202 249 264 -254 153 0
375 269 -254 -111 153 -252 372 -167 150 168 -257 162 0
239 -263 -111 -254 0
-236 -261 246 -254 -111 -257 -202 0
368 -111 -158 243 -260 -254 249 159 0
372 371 144 -257 153 -381 -162 -176 -111 -243 -192 168 -252 246 -254 0
254 -212 252 -267 257 250 115 -369 0
192 254 -268 138 0
254 288 259 138 -269 0
-112 -244 -137 144 -249 159 0
115 -369 -226 -382 -235 -333 113 -140 -112 -423 138 0
-112 -244 -137 -250 144 -202 0
-244 137 -194 144 0
-264 -272 138 259 156 -267 147 168 0
-274 -264 147 -272 168 153 56 -267 -269 -181 138 258 0
-264 -269 257 147 -267 138 0
-325 -264 -286 -269 0
-280 -264 -314 -286 156 0
-322 -264 359 -286 0
-226 368 243 -382 0
368 243 56 -258 372 -182 211 -58 60 247 0
368 243 372 211 -58 60 247 -182 -258 0
-381 368 243 -224 0
-244 -272 144 250 -269 -177 -181 147 153 56 138 -264 150 168 -255 -113 375 0
-322 331 -172 -280 314 212 138 0
372 -415 121 324 211 -367 224 -162 125 -176 374 -219 326 0
-415 -244 372 -367 375 374 211 247 121 162 270 -219 -279 0
-267 224 263 -219 259 162 -367 -120 168 -415 0
115 -369 159 -249 -269 -371 0
115 -369 270 255 411 371 205 153 168 156 147 -257 -269 -245 0
115 -369 375 -247 -226 264 -159 -382 0
-182 375 -249 372 162 370 -61 147 153 159 324 211 0
370 245 55 -182 372 247 211 0
115 -369 -258 370 -231 247 245 -421 0
115 -369 168 -382 150 372 -246 -377 0
115 -369 267 -243 -195 211 -182 147 159 247 -249 372 0
-60 372 55 -182 0
371 372 150 -202 -152 410 168 -421 -263 269 375 -231 -224 123 -250 115 0
-236 -58 247 56 211 -387 -258 60 -182 372 0
-176 372 375 208 -152 -419 -371 224 269 -227 144 -202 0
-323 -324 275 -278 255 257 0
-324 -319 -288 -268 0
333 -282 -289 255 -269 0
333 -329 -289 255 -269 0
-275 327 -333 -282 0
-244 250 -138 168 -159 -255 -246 -113 -261 -176 0
-144 -141 -159 0
-141 -144 -150 0
-139 420 -372 -141 -337 269 0
-141 -144 -156 0
372 127 -257 -336 247 -141 -144 -137 -252 168 -242 269 -371 -148 0
171 252 -258 -263 -242 268 -192 -141 -144 246 138 367 100 -261 0
-244 -252 -420 168 -141 121 -372 0
-244 -176 121 -141 -246 -242 -372 269 138 -254 0
192 -266 -268 0
-288 358 -321 -268 0
-329 -288 -268 -270 263 216 159 0
240 -245 147 377 150 168 -246 0
-329 -321 263 100 168 -269 -267 0
-212 -144 -159 0
-423 -212 243 153 -247 -369 115 -235 321 147 0
239 -263 -257 -119 0
126 -374 -257 -260 -119 0
49 227 46 -180 -179 119 0
-372 121 -150 269 -148 0
420 -372 -337 269 -148 -150 0
-179 399 -367 -374 -219 125 -246 264 -331 0
-319 342 -267 168 147 259 0
-322 -319 -280 -342 -314 -284 156 0
-274 -282 327 -331 0
-274 -280 325 -314 -331 156 0
239 -123 -263 -259 0
-221 -244 -201 -249 -168 -246 -333 -368 0
-132 175 144 168 -244 0
60 -210 247 -58 -137 121 -172 319 -254 372 242 367 -17 0
-144 -141 -372 121 0
-135 420 -133 269 -372 -337 0
420 -372 -144 269 -337 -142 0
-165 420 -163 269 -372 -337 0
-224 -381 -258 56 247 -182 372 -58 60 211 0
239 -127 -263 -261 0
-221 239 -263 -368 0
-282 327 -284 -342 0
-421 -231 -192 -263 377 168 240 147 -245 0
-282 327 -278 -336 0
-282 -276 327 321 0
-282 -280 325 327 -314 156 0
88 -282 82 327 -187 0
-314 325 -276 321 -280 156 0
70 -314 -280 -183 325 156 0
-242 -245 -246 -255 -176 144 269 369 -168 -372 138 -254 0
-176 369 -382 -242 144 -168 -245 -166 -150 113 138 -254 0
213 267 -176 369 -367 168 156 147 -259 246 144 -257 162 -263 138 -254 211 0
369 -168 144 -255 -176 269 -242 -150 -245 -372 138 -254 0
267 245 -372 269 -176 369 -255 -150 -168 144 -242 138 -254 0
369 -374 -269 16 -242 261 168 -147 270 144 257 162 249 138 -254 153 0
-267 257 -242 -374 -269 147 270 367 250 369 162 249 138 -254 153 0
257 126 -219 -147 -270 -269 -367 258 250 162 369 138 -254 153 0
257 126 168 -219 147 144 -270 156 -269 -367 258 250 162 369 138 -254 153 0
369 -367 -374 144 -219 156 147 261 141 270 -269 267 257 162 249 138 -254 0
369 162 270 -263 -192 147 144 168 250 246 219 249 -254 247 0
369 168 -137 -140 141 243 -176 377 257 144 -242 269 -270 -372 261 159 138 0
16 369 168 144 261 -263 -242 -374 -269 -147 270 156 257 162 249 138 -254 0
-176 -263 369 -372 144 -192 156 168 -147 -242 -141 -258 123 162 138 0
-245 369 -192 156 144 -263 -367 -141 -259 168 270 147 162 249 264 -254 0
-224 369 -367 -263 156 -141 144 -259 147 168 -245 270 162 249 264 -254 0
369 -374 250 -269 -242 16 147 270 144 -267 257 162 249 138 -254 153 0
-374 126 250 144 -242 -269 168 147 270 -267 257 162 369 -194 153 0
369 -267 -140 115 -263 -374 246 144 259 -242 147 -372 -257 270 168 249 138 0
369 267 -374 147 168 115 -263 -156 246 -242 270 371 -257 249 -194 0
126 -374 369 115 168 147 -263 -242 246 144 270 -257 -225 -194 0
-374 126 -176 252 -242 -263 -385 144 369 156 -260 -246 138 0
126 -255 144 -263 369 168 -252 -176 -242 -374 -140 -147 -260 -156 138 -254 0
115 369 -140 267 259 -374 144 246 -242 147 -372 -257 270 168 249 138 -254 153 0
126 -374 -257 369 252 168 -176 -242 -146 246 144 270 -263 -225 -194 0
252 -263 -141 267 -242 -121 -176 144 100 216 -258 369 -246 138 -254 0
369 -246 144 -195 -255 150 -140 -243 -259 -256 -219 -231 242 156 270 249 138 -254 0
-374 369 -260 -263 -255 -192 -140 168 -176 377 -156 -242 -147 144 126 138 -254 0
369 -263 144 147 -141 -256 168 267 -372 -156 269 -242 -194 0
126 -374 -225 144 -263 147 -176 369 -242 270 168 372 -194 247 0
369 -252 267 144 -259 -374 156 147 242 270 168 249 138 -254 0
369 242 -176 -259 267 367 -374 156 147 -255 270 -162 249 138 -254 0
369 168 -231 -252 -259 -225 144 -17 -219 156 147 244 242 270 -137 249 264 205 -331 0
-232 369 -259 -219 -231 244 144 -367 270 249 264 -331 0
369 257 255 208 -156 244 29 147 270 -154 -226 249 247 0
-176 369 144 267 -255 -374 -263 147 242 270 -162 249 138 -254 0
-176 369 144 141 156 -374 -195 147 -243 267 242 270 -259 249 138 -254 0
-225 369 -219 -226 208 29 -367 270 244 249 264 -331 0
369 -250 144 -255 156 -259 243 367 270 -202 141 -176 249 138 -254 0
369 252 -263 -256 246 144 -242 -259 -176 268 -257 147 156 267 168 138 0
369 -245 -256 246 168 -242 144 252 -259 -263 -257 147 268 -176 156 138 0
369 252 144 -140 -256 -243 -242 -176 -246 -259 156 -263 100 138 -254 0
-221 -162 -150 267 243 252 -333 -246 -176 -242 369 -263 -146 -194 0
-226 -176 -246 252 -385 267 369 -263 -242 156 100 144 138 0
369 -225 -162 252 144 147 -242 -263 -239 -176 -141 -194 0
-377 369 156 269 -242 -255 -372 -140 -176 252 -231 -162 -263 138 -254 0
369 -263 141 144 -176 -231 -269 -225 242 257 367 -377 156 147 -270 168 159 -185 138 -254 211 0
369 -176 252 -246 -195 -263 -121 168 -258 144 -255 -242 138 -254 0
-224 369 -259 -246 252 267 -141 144 -256 100 156 -176 -242 -263 138 -254 0
-176 -263 -372 123 369 156 141 168 -192 269 144 -255 -259 -367 138 -254 0
252 -176 244 -246 248 156 -155 -263 369 -256 -259 29 208 100 0
369 257 -219 -269 -259 252 -367 156 -263 -270 -162 159 -185 138 -254 211 0
-393 -263 -176 369 -367 -195 144 252 100 -219 264 -331 0
377 369 -263 -219 -259 -192 -243 -367 156 141 252 -176 144 100 264 -331 0
-212 369 252 244 -219 -176 -263 144 100 270 -367 249 264 -331 0
369 377 -263 -176 144 -195 -242 168 -243 138 -254 0
369 377 -263 144 -245 168 -242 147 -176 -194 0
-176 -250 -263 144 369 252 -255 -192 367 141 -202 100 138 -254 0
369 -221 -176 244 252 144 -333 100 243 -263 0
-176 -250 369 252 -202 100 -242 156 272 144 -259 138 0
-324 -242 -243 -150 -263 144 377 -382 -195 369 138 -254 0
252 369 144 -141 -372 267 -263 -242 -176 269 216 100 -246 138 -254 0
-225 369 -227 -263 168 216 268 -336 -371 144 -367 -195 -243 147 -176 -219 264 -331 0
369 -263 267 -176 -202 -242 -146 144 -250 39 -137 252 100 -226 0
369 -250 100 -255 -176 -202 -242 141 -263 144 252 138 0
369 -176 243 -382 252 -242 147 168 -255 -263 144 -140 138 -254 0
-176 252 113 -367 -137 144 369 258 -333 141 -147 -270 100 -263 -250 257 -202 159 264 -254 153 0
-242 377 -192 -243 -150 -176 369 144 -195 -382 -263 138 -254 0
369 -255 -263 -385 252 -140 -176 -242 100 144 156 138 -254 0
369 -226 377 144 156 -259 -176 100 252 -242 119 216 267 419 246 -263 -257 138 0
244 369 144 -263 377 100 252 -176 0
115 126 -147 168 367 156 144 -263 -374 -259 242 -260 -246 138 -254 0
115 -369 168 255 -374 -269 270 -257 205 0
-419 -227 162 115 250 -140 144 -242 375 113 138 0
115 -369 269 -372 267 -257 247 0
115 -369 113 -407 -140 243 -226 -333 0
115 -375 162 -140 -261 -333 144 -371 246 -242 113 250 -257 138 0
-176 -375 162 168 250 -333 113 -263 141 115 144 246 -242 -371 -261 -257 138 -254 0
115 -369 124 -371 -259 268 270 -257 0
-373 -231 250 144 419 -146 -371 115 -176 -259 268 -242 -336 375 267 162 -194 0
-234 115 -242 144 208 -386 -246 150 138 -254 0
115 -156 168 -263 267 -374 -269 255 246 -242 270 371 -257 249 138 0
115 -250 -219 144 147 150 -246 374 -259 156 -367 270 -225 249 264 -331 0
-234 -120 156 144 150 115 -386 -219 -367 -259 -246 -231 264 -331 0
115 -263 144 147 246 141 -256 -140 267 268 -257 -242 -243 168 138 -254 0
115 -255 -147 168 -263 -257 144 113 371 -259 -367 246 156 264 -254 0
-381 -226 -255 -156 -162 267 243 115 -176 -252 -242 -194 0
377 115 141 242 367 168 144 -243 -263 138 -254 0
115 -225 -257 168 144 -242 -263 -156 -148 268 -141 -371 -194 0
-176 -245 144 242 -255 -162 -259 268 243 -257 367 115 147 156 138 -254 0
115 -367 371 156 113 -255 -225 144 -219 147 -259 246 -256 141 -257 264 -331 0
115 113 156 371 -255 -225 -256 144 147 -259 141 246 -367 -257 264 -254 0
-176 -225 156 150 -259 115 -162 144 -245 -367 -257 -256 -255 113 -243 268 147 264 -254 0
209 115 -385 -255 -150 -146 144 245 -176 267 -259 243 156 -242 -162 138 0
115 -242 147 371 246 -245 144 -194 0
-176 -232 -257 115 371 -259 119 -226 141 113 144 246 267 -333 -242 138 -254 0
115 371 147 -219 144 141 168 -225 246 -243 -367 -263 -257 264 -331 0
115 -225 113 -256 371 -219 144 -367 168 141 246 147 -263 -255 -257 264 -331 0
-370 -225 144 -243 156 115 242 267 -371 -227 141 367 123 268 -259 -336 138 -254 0
115 -367 156 -180 144 246 -259 -219 -243 141 268 371 264 -331 0
-225 -252 115 -167 -246 144 -367 147 150 264 -254 0
115 -333 168 -252 -226 -140 144 243 113 -225 -242 -194 0
248 115 268 113 -242 245 -333 267 246 -155 144 -148 -259 243 -176 -257 138 -254 0
-267 162 -257 249 138 -254 247 0
250 162 -257 249 138 -254 247 0
-372 162 -257 249 138 -254 247 0
-257 162 249 138 -254 247 0
-242 -261 159 371 156 144 246 269 -270 -372 250 267 168 -257 162 138 -172 247 0
126 -367 144 -269 -147 246 156 -270 -250 168 -257 162 138 -254 122 0
-252 367 -227 159 -269 -259 156 144 141 246 242 -270 -250 168 -257 162 138 -254 211 0
248 -176 -168 -256 -257 -255 -166 -259 -242 246 156 144 138 -254 0
-252 126 141 144 156 -236 367 -269 168 246 242 -270 258 -261 -257 162 138 -254 153 0
393 162 144 256 263 168 -269 156 246 367 270 -137 141 -261 -257 249 138 -254 122 0
-267 162 -372 270 -257 249 138 -254 247 0
-242 162 -372 250 270 -257 249 138 -254 247 0
-372 162 250 270 -257 249 138 -254 247 0
367 162 -372 270 -257 249 138 -254 247 0
-372 162 270 -257 249 138 -254 247 0
367 162 -246 -372 270 -257 249 138 -254 247 0
-257 270 249 138 -254 247 0
267 159 -270 372 250 367 260 -257 162 138 -254 247 0
-121 -162 242 -147 -374 270 -257 249 138 -254 122 0
156 -257 -372 147 270 249 138 -254 247 0
-372 -257 147 270 249 138 -254 247 0
144 -257 156 -374 -372 147 270 249 138 -254 247 0
144 -250 246 141 -374 -259 242 156 415 -372 147 270 -257 168 249 138 -254 122 0
144 -257 156 -242 -372 147 270 249 138 -254 247 0
156 -257 -242 -372 147 270 249 138 -254 247 0
-250 168 -225 -195 246 -374 144 242 156 367 -372 147 270 -257 259 249 138 -254 122 0
-156 -162 -121 -374 242 147 270 -257 249 138 -254 122 0
263 -257 -269 -245 -371 -79 125 393 -149 -242 144 208 -148 141 -119 147 270 249 138 122 0
-269 -162 246 374 -259 -144 393 -242 156 -149 147 270 -257 249 138 122 0
-269 -162 256 -141 -248 156 -242 147 270 -257 249 138 -254 153 0
-269 -162 246 -374 -144 393 141 -259 156 -242 147 270 -257 249 138 122 0
-140 168 256 259 -374 246 144 267 141 -242 156 147 -372 -263 270 -257 249 138 0
259 -162 367 -267 246 -374 144 242 156 147 -372 -263 270 -257 249 138 -254 0
252 242 -257 246 374 270 -263 249 138 -254 0
-269 168 -119 246 374 -140 -149 -242 144 208 -148 141 147 -263 270 -257 249 138 0
-255 -162 246 -374 -140 -242 -147 -263 270 -257 249 138 0
-269 -162 246 -374 -140 -242 -147 -263 270 -257 249 138 0
252 126 246 -374 -156 -263 -260 -257 -162 0
-144 -162 141 -242 -374 147 -372 156 270 -257 249 138 -254 122 0
-141 -257 -242 147 -372 156 270 249 138 -254 247 0
-202 -257 150 147 156 270 249 138 -254 247 0
-263 147 156 367 -257 249 138 -254 247 0
-269 147 252 -367 156 -263 -257 -270 -162 126 138 -254 122 0
-202 -162 -156 270 -257 249 138 -254 0
-121 -162 147 -374 -242 -156 270 -257 249 138 -254 122 0
-269 -162 144 -242 -374 147 -156 270 -257 249 138 -254 122 0
-263 147 -227 -245 150 415 -219 258 -269 141 144 252 156 -367 -257 -270 -250 168 126 138 -254 153 0
-263 147 -227 -259 -418 150 415 -219 258 -269 141 144 252 156 -367 -257 -270 -250 100 126 138 -254 153 0
-263 147 -259 -227 -248 -418 150 415 -219 268 -269 141 144 252 156 -367 -257 -270 -250 100 159 138 -254 153 0
-252 -156 -269 -257 -263 147 260 -270 -162 159 138 -254 153 0
-252 -156 -269 367 -245 -257 147 -270 -162 159 138 -254 211 0
-252 -156 367 269 -257 147 249 138 -254 247 0
-269 147 367 252 -156 -263 -257 -270 -162 159 138 -254 153 0
-252 147 246 -269 -111 -243 144 -195 -257 -270 168 159 -254 153 0
-245 -255 150 147 -195 168 -111 -257 -252 -254 0
-243 147 367 156 -257 249 138 -254 247 0
263 147 -259 269 243 242 -372 156 367 -257 -270 -162 159 138 -254 122 0
263 147 -269 367 156 -243 -257 260 -270 -162 159 138 -254 153 0
263 147 -269 367 156 243 -257 260 -270 -162 159 138 -254 122 0
-272 147 -225 123 -372 242 -176 -258 243 -121 144 156 367 -257 -270 168 159 138 -254 0
-272 147 -259 242 269 243 -372 367 156 -245 -257 -270 -162 159 138 -254 122 0
-243 269 -245 -259 150 -162 147 156 -257 -367 138 -254 247 0
-245 415 147 -219 -367 372 150 232 156 -257 264 -331 153 0
245 -225 415 -182 -219 246 210 -367 -257 269 264 -331 247 0
-242 147 150 16 269 -243 -245 144 156 263 -257 -270 -162 159 138 -172 247 0
-242 147 -259 144 269 243 -245 156 263 -257 -270 -162 159 138 -172 247 0
-162 -156 -257 367 242 246 -258 138 -254 247 0
243 -258 -140 -255 -156 246 -162 -257 247 0
-176 -243 -162 367 -255 -256 267 -257 147 -156 138 -254 0
-368 -255 -371 243 -144 -257 -162 -140 0
-121 -162 -242 -374 -147 270 -257 249 138 -254 122 0
-141 -147 -263 -371 -257 120 -377 0
-381 -382 147 144 -243 -111 -176 -195 150 -257 -254 0
-393 267 -137 -156 -162 367 -257 -226 138 -254 0
-245 -176 147 -156 -162 -243 -256 -257 367 138 -254 0
259 147 252 268 -140 -255 -242 144 141 258 246 156 -263 -257 -270 168 159 138 -254 153 0
-263 252 -176 -243 -156 -162 -219 -257 -242 -256 138 -254 0
-255 -256 -156 -162 243 246 -224 -257 0
-255 -224 -140 243 -257 141 -256 371 246 0
-232 65 -257 -119 -221 -259 -155 243 0
-242 -243 -140 246 258 -269 -263 -257 -147 -270 -162 159 138 -254 153 0
-263 -243 258 242 367 -257 -147 -270 -162 159 -185 74 138 -254 153 0
-263 252 -258 -371 -156 -257 -162 247 0
-263 -258 371 246 -156 -162 -257 252 247 0
-162 -263 246 -258 -257 -147 252 247 0
-377 -263 -257 -119 0
-393 -263 -137 -156 367 -257 252 -162 138 -254 0
252 -263 -257 246 -111 -254 0
-225 -226 -372 269 -367 246 46 210 -219 -257 122 0
377 252 -257 -263 371 246 0
144 -176 246 258 -263 -111 -155 -257 -243 -195 156 -270 168 159 -254 153 0
-255 243 371 -140 246 -257 252 -263 0
-221 252 -219 246 -367 -137 -263 243 -140 -255 100 -257 264 205 -331 0
252 -263 -257 -119 242 -137 367 138 -254 0
126 -374 -269 -168 -140 261 147 156 246 -242 270 267 -257 162 -255 138 0
-150 250 -236 -147 -374 -261 -140 270 243 -255 -202 249 0
-242 267 250 -236 150 -156 -261 -168 -246 -255 -202 138 -254 0
126 -371 156 141 147 -225 -367 144 258 -261 246 242 -270 250 -257 162 -255 138 -254 153 0
-242 -261 150 267 -156 250 -144 -246 -255 162 138 -254 0
250 243 -156 -255 -144 -140 246 -261 -257 162 0
-176 -255 -242 -257 -168 -259 -256 156 246 144 -245 138 -254 0
-250 -168 -255 367 -147 270 258 257 162 249 138 -254 122 0
-255 -168 -137 242 367 -147 270 243 -140 249 138 -254 0
257 -261 144 -154 -242 -140 147 267 -256 -176 250 -270 -255 258 162 159 138 -254 122 0
-375 -261 250 144 156 -242 -140 147 267 -256 -176 257 -270 -255 258 162 159 138 -254 122 0
250 257 -242 156 -140 267 144 -195 -374 245 -261 270 -255 258 162 249 138 122 0
121 -144 -255 -168 -140 -368 270 243 249 247 0
-255 250 -242 -374 -155 -259 -140 -261 270 243 162 249 138 0
-261 -256 156 147 257 -259 144 -245 -242 -140 250 -255 -375 162 138 -181 0
-168 -144 243 242 -255 -260 -137 367 -140 249 138 -254 0
-113 -255 -115 -232 144 156 243 -140 261 260 -258 162 159 247 0
-255 267 141 156 -259 147 367 270 243 -250 162 249 138 -254 0
-255 243 -156 267 147 270 -154 -140 -250 162 249 138 -254 0
126 -374 -245 242 -259 367 156 141 147 270 -250 162 -255 138 -254 0
-374 -255 126 252 -156 -140 100 -263 -236 -261 243 -235 -260 -147 0
-168 -250 -242 243 -147 270 -255 -259 -202 249 138 0
375 250 267 -368 -168 -144 -146 243 -140 245 -255 0
-255 -168 248 -259 293 -144 270 -140 243 249 0
-255 -242 -146 245 -140 156 243 261 168 267 -270 209 372 257 162 138 247 0
224 -242 -176 156 267 243 261 144 209 -255 -270 -146 372 257 162 138 247 0
-368 -115 -232 -255 261 144 -145 243 -140 -147 156 260 -258 162 159 247 0
-255 -144 -370 267 -368 -168 -140 243 0
-370 -168 -368 -232 243 -144 64 -140 -255 -270 -258 247 0
-245 -250 -168 367 243 147 -259 -202 -144 -255 138 -254 0
-147 -255 248 -258 123 -168 -140 -155 243 -372 0
-252 -370 367 159 243 -140 267 156 258 -270 168 -250 257 162 -255 138 -254 153 0
369 -250 -255 118 -226 -256 243 -168 144 367 270 -269 -176 -202 249 138 -254 0
-248 -242 -147 -256 -140 250 -195 -150 144 -261 156 -246 243 -255 162 138 0
-168 -242 144 -256 267 250 -150 -246 -261 375 -255 162 138 -254 0
-242 -245 156 -256 -150 -259 144 -231 -255 -140 -246 -168 138 0
-242 -245 -168 -256 -150 144 -140 -255 -261 -387 250 162 138 0
-374 126 -260 -221 -381 -242 -245 147 144 -140 -261 243 162 -255 138 -254 0
-224 -168 -166 -256 -381 243 270 -140 -255 249 0
267 -242 -255 -259 374 -372 156 269 246 270 -257 249 138 -172 247 0
-232 243 -255 267 -140 209 -155 -259 245 -168 -144 0
-374 -232 -246 -140 -233 -255 367 -168 -259 242 270 249 138 -254 0
144 168 -111 -269 -246 -255 374 -195 242 150 270 156 249 138 -254 122 0
-381 -374 126 -195 -242 144 -259 156 147 -372 -272 -176 257 270 -255 168 138 -254 153 0
126 -374 147 -372 -156 -242 257 270 -162 -255 138 -254 122 0
126 -374 -263 -147 -242 258 257 -260 -162 -255 138 -254 122 0
126 -374 -147 -242 258 257 270 -162 -255 138 -254 122 0
-255 372 156 -263 147 -374 -242 257 270 -162 249 138 -172 247 0
372 126 -140 -195 144 156 259 147 -252 -374 -242 257 -260 -255 168 138 247 0
-255 -242 144 147 -259 156 -263 374 -372 257 270 -162 249 138 -254 122 0
-242 168 -140 144 -259 147 263 156 374 -269 257 270 -255 249 138 -254 122 0
-255 -242 -259 -147 -269 156 374 263 257 270 -162 249 138 -254 -181 0
-144 372 -255 243 -140 270 -156 249 247 0
-255 -242 -156 -372 374 -263 257 270 -162 249 138 -254 122 0
126 -374 367 269 -195 267 147 242 270 -255 138 -254 247 0
-255 267 -269 -252 -367 374 156 147 257 270 -162 249 138 -254 122 0
126 -374 269 -195 242 367 -14 147 -245 270 -255 -372 205 -254 0
-255 -244 -259 267 -367 374 156 147 270 -162 249 138 -254 0
-234 -255 -370 -386 -140 269 243 121 267 -372 0
243 -255 -367 267 -140 -259 -219 374 156 147 270 249 138 -254 0
-374 243 -260 -255 -137 -156 367 -140 -147 242 126 264 205 -172 0
126 -374 243 -255 -156 -140 -147 -260 -368 0
257 168 259 -140 -195 144 156 -372 326 -255 374 -252 -242 249 138 122 0
374 267 147 150 243 -219 -367 -140 -246 -255 -137 270 249 138 -254 0
-368 -367 -195 -140 -180 -263 -246 267 -259 243 242 156 -255 147 -162 138 -254 0
-242 -263 -156 252 -257 246 374 270 -255 249 138 -172 0
-255 252 -371 -257 -156 -162 -263 243 0
-259 -250 243 156 -140 147 267 270 -202 -255 -367 249 138 -254 0
-255 372 -150 243 -367 -162 -136 -254 247 0
-337 -144 245 -259 -255 -155 -146 -232 324 -258 243 64 209 -270 -162 247 0
-144 -337 245 -372 -255 -155 -146 -232 -258 243 209 -270 -162 122 0
-382 -226 -257 246 243 -144 -255 -162 0
243 -255 -257 246 -162 -144 -258 -337 247 0
-255 -245 119 269 372 150 -367 243 147 138 -254 247 0
-370 118 267 -202 -255 144 168 -269 -219 246 -270 -250 -156 -257 -367 159 138 -254 153 0
-255 250 -368 -236 -140 -257 -261 246 -156 -147 243 -202 0
-176 -256 367 -255 268 -245 -156 -162 243 -257 147 138 -254 0
-252 -225 242 144 -140 -255 -246 267 -259 168 156 -256 -176 138 -254 0
-242 -263 -259 -246 -255 -219 243 -147 -162 138 -254 0
367 243 -246 150 -255 242 144 -140 -167 -263 -256 138 -254 0
-115 -242 -259 -256 252 -263 -140 -246 -255 156 100 138 0
-176 -242 248 -256 -259 -255 -246 144 156 -263 168 267 138 -254 0
243 -374 -269 -245 -140 -168 115 147 261 -259 156 246 -242 270 -257 162 249 138 0
-245 144 159 -259 -150 -232 -269 -140 168 -261 156 -246 -242 -270 243 162 250 138 122 0
-371 -261 159 141 -140 168 144 -156 -242 246 -269 -270 250 267 -257 162 243 138 122 0
-127 -261 252 168 -269 371 243 246 -270 -257 122 0
-252 168 -246 243 -140 150 261 144 269 367 242 -270 -372 162 159 138 -254 247 0
252 244 243 159 168 -269 144 261 -140 -270 -246 162 153 0
375 267 -219 -255 147 -140 150 250 -261 -367 242 -246 243 162 138 -254 0
375 -371 159 -370 -269 -140 144 168 -261 246 -242 -270 250 267 -257 162 243 138 122 0
-245 -255 159 -269 -150 -140 -261 -242 -246 -156 -270 243 162 250 -194 153 0
-252 -242 159 -255 -140 -256 -259 168 -269 156 246 144 -270 250 -257 162 243 138 0
-245 -385 -202 243 -150 -168 -375 -269 144 -261 -140 156 -242 -270 -246 159 138 211 0
252 -371 261 159 100 269 -140 -263 -224 120 -270 -372 -257 162 243 0
243 -155 -374 -224 -269 -263 -232 252 -140 -147 -150 156 100 -246 270 249 0
261 -269 -242 -226 39 -150 -255 -156 -246 243 -270 267 162 159 138 -254 153 0
144 -367 159 -219 156 168 -269 141 246 -255 -270 -250 -257 162 243 138 -254 153 0
-236 243 252 250 100 150 -255 -167 -140 -242 -263 -246 -261 -202 138 -254 0
-255 -242 250 159 168 -269 150 144 -140 -261 -270 -246 162 243 138 -254 153 0
-252 250 -269 259 147 -261 -225 144 -150 -140 141 156 374 -246 -242 270 243 162 249 -194 0
126 368 -269 -382 -225 -374 243 -150 261 -246 -156 -260 162 -242 -194 153 0
243 250 -266 -324 -263 -232 100 252 -259 -374 385 141 -155 64 -140 270 -246 162 249 0
243 162 -150 168 -242 -269 -259 -252 -374 144 -140 -147 156 141 270 -246 249 138 0
-232 -385 250 159 -155 -219 -269 -375 252 -367 -235 168 156 -261 -140 -270 -246 162 243 264 -331 122 0
261 243 -154 39 -140 -146 -226 -269 144 -224 -156 -246 -270 267 162 159 211 0
243 162 261 374 -263 -115 141 -140 -269 252 270 -246 249 0
-245 -232 147 250 159 -259 -269 141 -140 168 -261 156 144 -242 -270 -246 162 243 138 122 0
121 -385 250 159 269 -375 -266 252 141 -140 -235 168 -261 -232 -270 -372 -246 162 243 0
-144 -147 -261 -140 65 243 -232 -259 -255 -242 64 246 -137 -155 -257 162 138 0
121 -261 250 156 144 147 257 -375 -242 269 -270 -372 243 368 162 159 138 122 0
121 147 250 144 -255 257 375 -242 269 -270 -372 243 -140 162 159 -194 -181 0
250 257 -144 -259 -242 -140 -261 -269 -147 270 243 374 162 249 138 0
372 257 156 -259 -381 -176 -242 270 144 147 243 250 162 249 138 247 0
372 257 -242 144 270 147 243 250 -154 162 249 138 247 0
372 257 144 168 -270 -242 147 243 250 162 159 138 247 0
-242 261 168 144 243 -270 372 257 162 159 138 247 0
-245 261 147 141 100 216 243 -367 -270 -167 372 257 159 138 -254 247 0
-377 261 -140 141 243 -270 372 257 159 247 0
372 257 -259 168 156 -377 243 261 270 -140 -155 248 249 247 0
372 -261 -154 267 -176 224 144 -146 -242 -270 243 250 257 162 159 138 247 0
144 -242 243 261 209 -154 -270 -146 372 257 162 159 138 247 0
-374 -168 -221 -333 -176 371 115 243 -137 246 -242 -260 -257 126 0
65 -168 156 -242 -374 -183 267 -232 147 -269 246 270 -250 243 -257 -202 249 -194 0
113 144 159 -225 -381 156 141 -333 -176 147 258 -270 -367 -250 257 162 243 264 -254 153 0
-234 -250 -202 269 -258 -140 -386 -137 -242 243 -372 -255 0
-242 -372 147 -246 243 393 150 156 374 -259 270 249 138 -254 247 0
-158 74 -147 367 -374 -255 242 -137 -260 -162 -140 243 264 205 -172 0
126 -374 -236 -387 -140 270 243 -219 -367 -255 264 -331 0
-250 -147 -258 -168 -270 -202 243 -372 257 -242 159 138 122 0
-259 168 -263 156 -192 374 -255 -242 -140 270 243 249 138 0
-252 -255 -242 -140 -386 243 -259 168 156 270 249 138 0
-234 -267 -259 -269 -137 150 -219 144 -367 393 -386 -246 243 156 168 263 138 -254 122 0
-234 -245 -242 -255 243 -386 -372 -140 269 -146 -194 0
369 -250 144 -255 -256 -140 270 -202 243 -242 -137 249 0
-244 100 -263 -140 252 -255 267 -374 144 147 242 270 243 249 138 -254 0
-221 -137 243 -219 -125 242 -260 264 205 -172 0
113 242 -137 -219 -260 243 -140 -125 264 205 -172 0
-250 -147 -255 -137 -258 -168 -270 -202 243 -242 -372 257 248 159 122 0
243 252 -263 -140 -192 -367 377 -219 100 -255 270 249 264 -331 0
-234 -377 -263 -140 243 -386 -255 0
243 113 -111 -140 -260 249 -254 0
126 -374 267 -244 242 367 -140 147 -255 270 243 144 138 -254 0
-368 -370 267 -255 -219 -140 245 209 -367 270 243 249 264 -331 0
-234 243 156 -367 -386 -140 -255 147 -219 -259 -245 138 -254 0
-234 74 -255 -140 242 -171 -137 367 -260 -162 243 -158 -160 264 11 205 -172 0
267 -255 -140 -156 245 209 270 243 -154 249 0
-158 74 -140 -374 -255 -147 -260 -162 243 -368 0
126 -374 -367 -368 -219 -255 -140 270 243 264 -331 0
252 -144 -269 259 -140 -147 243 156 168 246 -270 -257 159 153 0
-374 -252 270 147 243 -259 -140 -255 168 -245 242 156 249 138 -254 0
-374 -232 -257 -221 -259 -233 -231 243 371 119 246 270 -333 0
-382 105 -195 -260 243 147 168 -125 -242 113 377 -140 -263 -194 0
-250 -255 -140 267 156 -259 147 270 -202 243 -242 249 138 0
126 -374 -137 -381 -17 -219 -333 -221 -250 -176 270 -202 243 -367 144 264 205 -331 0
-234 -244 270 243 -367 -259 -245 -333 144 113 -233 147 -219 156 -140 123 264 -331 0
126 -374 257 156 259 -370 118 147 -140 -260 243 -266 -368 0
-252 -156 367 -176 -258 257 -245 243 147 249 138 -254 247 0
243 -263 -269 -257 367 252 -156 267 147 -270 -162 159 138 -254 211 0
-242 243 269 -257 -219 156 147 249 138 -254 247 0
243 -272 -259 144 -372 269 -367 156 -245 147 -270 -162 159 138 -254 122 0
-245 -250 150 -257 -176 268 -256 144 -259 -242 243 156 147 -255 138 -172 0
-263 -245 168 147 -256 -242 243 144 -140 246 -257 -255 -194 0
-270 -168 147 -250 -372 257 162 126 138 -254 122 0
261 -270 147 250 372 257 162 159 138 -254 247 0
-226 375 -225 150 162 -367 250 -261 -252 -167 -246 264 -254 0
-374 242 270 -246 150 -259 156 269 -372 249 138 -254 247 0
267 -261 150 242 147 144 168 250 375 -156 -270 -269 -246 162 159 138 -254 122 0
-246 150 374 147 141 156 -242 -372 270 249 138 -254 247 0
150 168 -269 263 -368 -115 243 -255 -373 -242 156 -140 144 270 -246 249 138 -254 122 0
126 -374 168 -195 242 -263 -246 270 -243 150 138 -254 0
126 -374 -195 -255 -219 367 -245 242 -137 -246 147 -180 270 150 264 205 -172 0
126 -267 -248 -125 -269 -167 367 -374 -195 -246 242 156 -260 150 138 -254 122 0
267 -225 150 147 250 168 -367 -137 -269 144 -261 375 -156 -270 263 -246 162 159 264 -254 122 0
-140 261 168 -255 -371 -374 -269 156 246 -242 270 -257 162 249 138 153 0
-140 156 -255 168 208 -371 -374 269 261 246 -242 270 -372 -257 162 249 138 247 0
-140 -146 -374 141 168 208 269 246 -242 270 -372 250 267 -257 162 249 138 247 0
-140 261 -245 -150 -255 -156 -246 -242 -270 -372 162 159 138 153 0
375 -168 -242 -259 144 -150 -140 156 -246 -261 -270 -372 250 267 162 159 138 247 0
-225 -242 -140 -252 141 168 371 -269 156 -261 246 -144 -270 250 -257 162 159 138 153 0
-261 -242 -140 -269 258 141 371 156 144 246 -266 -270 250 -257 162 159 138 153 0
-225 -242 -269 144 371 -140 141 -156 246 -261 -270 250 -257 162 159 138 -254 122 0
-371 -261 141 159 144 -156 -242 246 -269 -270 250 267 -257 162 -140 138 -254 122 0
261 -140 367 159 269 144 156 168 141 242 260 -270 -372 267 -246 162 138 -254 247 0
-225 261 159 269 168 144 156 -140 141 242 260 -270 -372 267 -246 162 138 -254 247 0
-140 261 367 144 168 269 141 156 -259 -246 242 -270 -372 267 162 159 138 -254 122 0
267 -242 -140 156 147 144 246 261 260 -270 372 141 -257 162 159 138 -254 247 0
-371 -242 -195 -245 168 144 -227 -140 147 -148 -149 261 -270 372 -257 162 159 138 247 0
-119 -371 159 141 144 168 -140 -148 -149 261 -242 -270 372 -257 162 -243 138 -254 247 0
-371 -261 159 -140 -269 144 156 -168 246 -242 -270 250 267 -257 162 -259 138 211 0
261 242 -367 -246 -140 141 168 150 269 144 -270 -372 162 159 138 -254 0
-261 -242 159 -269 -140 371 -156 168 246 144 -270 250 -257 162 -243 138 -254 153 0
261 -242 159 141 -140 156 246 144 260 372 -257 162 -243 138 -254 247 0
-119 261 159 -195 168 156 -140 -242 -270 372 -257 162 -243 138 247 0
244 -232 258 -150 -255 -140 -146 245 -177 -168 64 39 243 -246 -270 267 126 153 0
-224 -140 -269 -255 144 168 -371 261 -374 246 -242 270 -257 162 249 138 153 0
-140 261 -155 -259 374 -146 248 -269 -168 246 -242 270 267 -257 162 249 138 0
-140 267 64 168 147 -324 144 -259 -263 -232 252 -155 141 -242 270 -246 250 162 249 138 0
-140 250 64 -324 168 147 -263 144 -259 -245 -232 252 -155 141 -242 270 -246 162 249 138 0
-385 -371 243 -140 -224 -232 261 120 269 -270 -372 -257 162 159 0
261 257 -168 144 -242 269 -270 -372 -140 162 159 138 -254 122 0
121 375 -140 144 147 -243 257 -242 269 -270 -372 250 156 162 159 138 -254 -181 0
-140 261 374 252 168 144 -242 -243 269 -147 270 -372 162 249 138 -254 247 0
375 -255 144 -176 -195 -261 -137 257 -140 -242 168 250 -263 -256 162 138 -254 -181 0
-242 257 -386 156 168 141 -140 261 269 270 -252 -372 249 138 247 0
-140 -269 374 168 -245 -375 -144 -242 -156 147 270 257 162 249 138 153 0
250 257 168 -242 -144 -374 267 147 -156 270 -269 -140 162 249 138 153 0
250 257 168 -263 -242 -144 -374 267 147 -156 270 -269 -140 162 249 138 0
-168 -242 -259 -245 261 -140 -144 -270 147 372 257 159 138 247 0
261 372 -140 -243 156 -195 168 270 -242 257 249 138 247 0
-144 267 -242 -243 -370 -195 -140 168 261 -270 372 257 162 138 247 0
-127 113 -140 -245 147 -381 144 -242 -261 138 0
250 257 375 -374 -255 -259 -155 -144 -147 -261 248 243 258 -140 162 249 211 0
261 372 -242 -377 147 156 270 141 -140 168 257 162 249 138 247 0
261 372 207 -140 168 144 270 209 156 -242 257 162 249 264 138 247 0
-375 257 156 -31 208 168 -377 -115 -261 256 209 118 270 -235 -242 -374 207 250 -140 162 249 138 211 0
-255 -242 -202 147 267 -140 -259 -261 -375 -144 -168 138 0
256 168 259 -374 246 144 267 141 -242 156 147 -372 -257 270 -140 249 138 122 0
256 -140 -374 246 144 259 141 -242 156 147 -372 -257 270 -162 249 138 247 0
256 168 374 246 144 259 141 -242 156 147 -372 -257 270 -140 249 138 247 0
256 168 -267 -259 374 246 -263 141 -242 156 147 -372 -257 270 -140 249 138 0
267 168 -255 -374 246 -263 -195 -242 147 -257 270 -140 249 138 0
-381 168 -255 -374 246 144 -263 -242 -257 270 -140 249 138 0
-140 168 144 -121 123 -225 141 -125 -374 393 242 156 147 -260 -246 249 138 -254 122 0
261 -140 -176 -381 -245 -270 144 141 147 -219 121 269 -367 -372 257 159 264 -331 0
-243 -140 267 246 -371 -144 -242 147 -257 270 -162 249 138 0
-140 168 -119 246 374 -263 -149 -242 141 -148 156 144 -257 270 -269 249 138 0
-140 -242 -243 168 267 -246 -263 147 374 270 -195 249 138 0
-140 267 147 -243 -263 168 -192 -246 374 -242 270 -195 249 138 0
126 -374 -259 -381 -242 156 144 -243 270 -140 138 -254 0
-140 -242 -259 -144 147 -272 156 374 -255 257 270 -162 249 138 247 0
267 -140 -263 -255 -156 374 -242 270 -162 249 138 0
-140 -242 -263 267 -156 374 -243 270 -162 249 138 0
-234 -255 -367 -227 -140 -371 -219 243 -386 268 -336 138 -254 0
126 -374 -243 -225 144 -381 -242 147 270 -140 138 -254 0
-250 -242 -256 267 144 208 147 374 -243 270 -140 249 138 -254 0
-140 -242 -258 267 -121 147 -386 -255 270 249 138 0
-374 -375 -137 -233 -333 -140 243 367 -235 113 -261 242 270 264 205 -172 0
-374 -243 270 -233 -235 -245 147 -140 -261 -375 0
242 168 267 -259 -252 -374 156 147 -255 270 -140 249 138 -254 0
242 168 267 -269 141 -367 144 -374 156 147 263 257 270 -140 249 138 -254 122 0
242 100 252 -255 377 -245 111 147 -263 270 -140 249 138 -254 0
126 -374 156 147 -385 -243 -242 -225 270 -140 138 0
-252 -156 144 -242 168 -256 -386 -140 -255 -147 270 249 138 0
-140 -246 -386 -243 -259 144 -256 -242 156 -260 249 138 -254 0
-234 -255 -140 -372 -242 168 -386 269 -252 -195 138 0
255 242 367 168 -258 252 -246 -140 141 261 -270 -372 159 138 -254 0
-374 -243 270 -233 -367 147 -219 -140 -245 264 -331 0
-234 -252 -255 -140 150 168 -386 -246 -367 138 -254 0
-140 252 -192 100 -263 377 -219 270 -255 -367 147 -245 249 264 -331 0
-140 -150 252 -259 -255 -242 144 -269 156 -263 147 -270 -162 159 138 -254 153 0
-140 147 252 259 -150 -255 -242 258 156 -263 -246 -270 -162 159 138 -254 153 0
-263 267 246 147 -140 -243 -242 -144 268 -257 252 -195 -162 138 0
-176 -255 367 243 -140 168 147 -245 -256 -252 257 144 264 -194 205 -172 -181 0
267 121 -263 168 -140 242 -192 156 269 -372 -243 367 -195 123 147 138 -254 0
267 -263 -140 -119 -195 168 -257 -242 -243 147 138 0
-242 -263 -150 -140 252 -255 -245 156 -259 147 -162 138 0
-245 252 -144 -263 156 100 -242 -259 -140 246 -255 -257 138 0
-252 -256 -137 144 367 147 -246 -140 -255 168 -245 242 264 205 -172 0
259 -140 -255 -242 141 -252 258 -269 -257 156 147 -270 -162 249 138 -254 153 0
-267 -252 -255 -246 -140 -259 242 144 -269 367 156 147 -270 168 159 138 -254 153 0
-370 372 257 -255 -156 -377 243 147 168 -270 -140 -144 159 247 0
-267 -252 -367 -259 268 -269 -257 -140 144 156 147 -270 -162 159 138 -254 153 0
-385 -243 -382 -242 -140 156 147 138 0
-267 -224 -140 132 -219 269 -246 141 168 242 -270 263 -137 121 243 -372 159 264 205 -331 0
-224 -232 -147 -137 -246 242 -155 156 -269 -140 -168 243 -270 367 159 138 -254 122 0
168 -263 -372 147 -243 144 269 -381 -367 -140 -246 242 -225 267 138 -254 247 0
-225 -243 156 -263 -246 147 -248 242 -195 168 367 -140 138 -254 0
385 -168 -224 -147 -137 -255 258 156 242 -140 243 -246 -270 367 159 264 205 -172 153 0
-381 -243 -242 144 -140 -382 147 138 -254 0
-382 269 121 -367 -372 147 -140 -243 156 -252 -219 168 -231 264 -331 0
267 -258 -140 -243 367 147 -14 -372 168 -252 156 123 242 205 -254 0
267 -244 367 -372 -255 -259 -140 147 242 123 269 156 144 141 138 -254 0
113 -245 -140 -333 -381 -367 144 168 -252 147 264 -254 0
-224 -381 267 -156 -255 243 -140 -154 -226 0
126 -242 156 -261 246 267 -270 -372 -371 250 -257 162 144 138 -254 122 0
-235 -148 156 147 159 267 144 -261 268 -149 -242 16 -270 372 -371 250 -257 162 259 138 -172 247 0
126 -242 168 -269 144 258 156 -261 246 267 -270 -371 250 -257 162 -141 138 153 0
267 -242 159 168 -269 144 -141 156 248 246 -261 -270 -371 250 -257 162 -259 138 153 0
267 -242 371 246 -156 -270 -261 250 -372 -257 162 159 138 -254 122 0
261 267 -242 260 -270 246 250 -372 -257 162 159 138 -254 247 0
261 267 242 260 -270 246 -372 -257 162 159 138 -254 247 0
267 250 156 -242 269 -372 -246 270 162 249 138 -254 247 0
-374 250 371 -261 267 246 -226 -235 270 -257 162 126 0
267 250 147 270 -372 367 162 249 138 -254 247 0
267 257 147 270 367 -269 250 162 249 138 -254 122 0
-242 267 -372 250 -270 -257 162 126 138 -254 247 0
126 -374 141 261 267 242 144 147 -269 270 -245 257 162 367 138 -254 -181 0
267 -371 168 144 -259 -155 261 246 269 -270 -372 -242 -257 162 159 138 247 0
261 267 144 374 269 147 -242 270 367 -372 162 249 138 -254 247 0
261 267 168 367 156 -147 246 144 -270 -372 242 -257 162 159 138 -254 247 0
267 257 147 -219 -168 270 -269 -367 261 162 249 138 -254 -181 0
-144 267 -180 156 -246 -367 242 -270 -269 261 162 159 138 -254 153 0
267 16 246 261 260 -270 372 -242 -257 162 159 138 -254 247 0
267 -141 261 168 156 147 -242 270 372 -246 162 249 138 -254 247 0
372 126 -374 -156 -242 270 147 -141 -246 267 138 -254 247 0
261 267 -242 156 147 168 246 260 -270 372 144 -257 162 159 138 247 0
267 16 -242 147 -156 246 261 -270 372 144 -257 162 159 138 -254 247 0
261 267 -219 -246 168 156 147 -367 260 -270 372 144 162 159 138 -254 247 0
267 -168 -259 -180 156 -246 -367 -270 372 250 144 261 162 159 138 -254 247 0
-242 16 156 147 168 246 267 260 -270 372 261 -257 162 159 138 -172 247 0
267 372 156 144 147 168 -246 260 -270 367 261 162 159 138 -254 247 0
267 -242 243 156 -140 -259 147 246 144 -270 372 261 -257 162 159 138 247 0
267 156 245 -246 209 -146 -168 367 260 -270 372 261 162 159 138 -254 247 0
267 372 -180 168 -246 260 -270 -367 261 156 162 159 138 -254 247 0
156 267 168 -367 260 -270 372 261 -257 162 159 138 -254 247 0
267 -168 -180 -246 -367 260 -270 372 250 261 156 162 159 138 -254 247 0
267 372 -140 144 147 168 156 -246 -242 270 261 141 162 249 138 247 0
267 257 156 -370 256 121 374 -242 269 393 270 -372 261 162 249 138 247 0
267 261 156 -144 -252 245 168 147 -150 -242 -270 372 250 -140 162 159 138 247 0
-370 -242 243 141 -227 168 261 246 267 -270 372 -140 -257 159 -194 247 0
-269 267 -242 156 246 367 270 -250 168 -257 162 249 138 -254 122 0
267 126 156 -246 -270 367 -250 168 162 -372 138 -254 247 0
267 126 367 -270 -372 -250 168 -257 162 156 138 -254 247 0
267 126 -270 -372 -250 168 -257 162 367 138 -254 247 0
-242 16 156 246 267 -270 -372 -250 168 -257 162 159 138 -172 247 0
267 -242 159 156 246 -270 -372 -250 168 -257 147 162 138 247 0
-144 -242 -259 147 156 -269 267 246 -270 -250 168 -257 162 138 122 0
-144 -242 156 -269 147 267 246 -270 -250 168 -257 162 159 138 122 0
156 267 367 246 -372 -250 270 -257 162 249 138 -254 122 0
-374 126 -250 367 -167 -156 267 270 -372 242 147 -246 162 138 -254 122 0
267 168 159 -156 367 -270 -372 -250 147 -246 162 138 -254 122 0
267 159 246 -270 -372 -250 147 -257 162 -367 138 -254 122 0
267 257 168 270 147 -242 367 -269 250 162 249 138 -254 122 0
-250 267 147 -255 162 -257 246 141 -242 -259 156 138 0
242 367 147 -259 144 156 168 246 267 -270 -250 -269 -257 162 159 138 -254 122 0
267 257 -242 168 147 156 270 367 -269 250 162 249 138 -254 122 0
267 257 -242 -144 16 -255 147 156 270 168 -269 250 162 249 138 -172 153 0
267 126 -263 144 -242 -374 16 147 -156 270 168 -269 250 162 257 138 -172 -181 0
267 126 144 -242 -374 16 147 -156 270 168 -269 250 162 257 138 -254 122 0
-374 16 126 -156 -226 252 118 144 168 261 -263 267 270 -242 257 -269 162 138 -172 -181 0
-374 -226 126 141 -140 118 156 144 261 267 -242 270 257 162 -269 138 -254 -181 0
242 367 -259 156 147 168 246 267 -270 -372 -250 144 -257 162 159 138 -254 122 0
267 -367 147 -269 168 246 156 -270 -250 144 -257 162 159 138 -254 122 0
267 257 168 -242 156 147 144 270 367 -269 250 162 249 138 -254 122 0
267 -242 -269 141 147 156 144 246 -270 -250 -266 -257 162 159 138 122 0
267 -242 -269 258 141 147 156 144 246 -270 -250 -266 -257 162 159 138 153 0
267 257 144 168 -242 -269 147 156 270 256 250 162 249 264 138 153 0
-381 121 -176 144 156 267 209 168 261 242 269 -270 367 -372 257 162 213 138 -254 122 0
267 -367 111 147 159 -269 156 144 246 168 -270 -250 -232 -257 162 -259 138 -254 153 0
242 367 156 147 168 246 267 -270 -372 -250 -144 -257 162 159 138 -254 122 0
242 367 -259 156 147 168 246 267 -270 -372 -250 -144 -257 162 138 -254 122 0
267 -367 147 -269 168 246 156 -270 -250 -144 -257 162 159 138 -254 122 0
267 257 -269 156 -245 -219 -263 141 147 168 270 -367 261 162 249 138 -254 0
-370 -367 -259 -232 -226 -219 -269 168 156 246 267 -270 -250 141 -257 162 138 -254 122 0
-242 -371 156 144 267 147 -269 246 -270 -250 141 -257 162 159 138 122 0
267 257 -154 144 141 -374 -242 147 -140 270 -269 250 162 249 138 -254 122 0
267 257 -242 144 141 -374 -140 147 156 270 -269 250 162 249 138 -254 122 0
267 257 -168 -374 -144 -242 -140 147 245 270 -269 250 162 249 138 0
267 257 -168 245 -374 -144 -242 -140 147 -269 270 261 162 249 138 0
-374 -250 248 65 -183 -269 267 -242 156 246 270 -168 243 -257 -202 249 -194 0
126 -250 -372 267 -270 -257 162 367 138 -254 247 0
126 -250 -246 -372 267 -270 162 367 138 -254 247 0
126 -250 -246 -372 267 -270 162 -367 138 -254 122 0
267 -250 111 168 -269 156 147 246 144 258 -367 -270 -257 162 159 138 -254 153 0
267 -168 156 -246 270 -372 -250 367 -202 249 138 -254 0
267 -168 156 -242 270 -372 -250 -246 -202 249 138 -254 0
267 -168 144 147 156 -246 270 -372 -250 -367 -202 249 138 -254 247 0
126 -168 156 -246 -270 367 -250 -372 -202 267 138 -254 122 0
-242 267 246 -270 -372 -250 -168 -257 162 159 138 247 0
267 371 147 -242 -257 -270 -372 -250 246 -168 -202 159 138 247 0
-242 -371 156 267 147 -269 246 -270 -250 -168 -257 162 159 138 122 0
126 -374 257 270 269 144 -146 16 -372 250 -242 267 162 138 -172 247 0
267 257 141 245 -219 -269 -252 147 156 168 270 -367 261 162 249 138 -254 0
-244 -374 270 261 -370 144 168 118 267 -269 242 367 257 162 126 138 -254 153 0
267 -269 270 144 261 118 147 -226 242 367 257 162 249 138 -254 122 0
375 -144 -261 267 -146 250 -232 -168 -226 39 -155 -259 162 0
267 126 -374 270 269 -144 -242 16 -372 -146 250 162 257 138 -172 0
261 267 -270 372 250 260 -257 162 159 138 -254 247 0
-263 213 267 -259 147 162 156 144 -242 168 269 257 -192 -256 -372 264 138 122 0
267 372 -180 168 -246 -270 -367 -156 261 162 159 138 -254 247 0
267 372 -219 -180 168 -246 -270 -367 -156 261 159 138 -254 247 0
267 261 248 245 243 -146 -144 -269 -168 -155 156 -270 -140 162 159 153 0
-250 -168 -242 -144 147 270 -259 267 -202 249 138 0
-127 113 -156 147 -261 -263 -333 -140 252 168 267 -192 -144 -242 138 0
-250 -144 267 -168 147 367 -259 -243 162 138 -254 0
267 261 115 -370 141 -232 144 -102 64 168 -272 367 -270 372 -259 159 138 -254 247 0
-261 250 -256 168 -252 -192 267 -242 -263 257 111 147 144 162 264 -194 205 -181 0
267 250 270 -261 156 168 -374 -242 -263 147 -259 162 249 138 0
267 261 -146 39 -259 -370 168 144 156 -242 -270 372 257 162 159 138 247 0
-127 -261 252 147 267 -192 -242 -231 -263 156 168 138 0
-225 267 147 156 168 -263 144 -259 -374 -242 -256 270 257 162 249 138 -254 122 0
-117 267 144 245 156 -243 141 -146 209 261 -242 260 372 -140 162 159 138 -254 247 0
267 -168 242 -150 -246 367 -270 -372 -250 156 -202 159 138 -254 122 0
-168 147 -372 -246 367 242 -140 243 -255 267 269 138 -254 0
258 267 -144 261 243 -368 -272 245 141 393 270 -150 162 249 122 0
-368 -255 -168 -140 267 209 245 243 270 -150 249 0
-269 267 144 156 147 168 -246 270 -250 367 162 249 138 -254 122 0
374 267 144 168 156 147 -269 141 -246 270 -250 -367 162 249 138 -254 122 0
-374 126 -236 147 -156 267 367 270 -246 -269 -180 162 242 138 -254 122 0
267 162 261 147 374 150 -269 141 -242 270 -115 -246 249 138 -254 0
374 267 144 242 209 -269 261 156 245 -246 270 -259 162 249 138 -254 122 0
374 267 -155 -146 -259 168 -148 -255 -371 252 -269 -141 261 248 -242 270 268 -257 162 249 -194 153 0
374 267 -146 168 -148 -255 -259 -371 252 -269 -155 261 248 -242 270 268 -257 162 249 138 -172 153 0
-250 -252 -259 147 162 -148 242 168 268 267 156 367 -371 -225 -257 138 -254 0
-382 267 156 -127 -146 -252 168 39 -242 -226 -261 258 -270 250 257 162 159 138 153 0
267 -162 -141 -263 -242 147 270 -246 249 138 -254 0
-374 126 -259 -381 -232 -155 -272 267 261 144 -256 141 -146 258 243 -242 270 393 -246 162 -194 122 0
267 162 261 168 147 -263 -374 156 269 208 -242 270 -372 -140 -246 249 138 247 0
267 -195 261 144 147 -140 168 156 -246 -242 270 372 -252 162 249 138 247 0
267 -156 367 -252 168 242 -246 -270 -372 -250 147 162 159 138 -254 211 0
-248 267 261 147 -324 144 -259 263 -374 141 156 258 393 -242 -260 -246 162 249 138 122 0
-256 -385 267 -242 209 245 144 -232 -255 -259 156 -246 -168 -150 138 -254 0
-224 -221 162 243 -232 -259 250 -226 -381 267 -261 -333 115 -231 -235 0
-370 385 -259 39 -144 -168 -146 -155 267 0
267 245 246 -374 -144 -257 270 -162 249 0
126 -374 -381 156 367 147 168 -263 -269 -259 261 -246 242 270 144 162 267 138 -254 0
267 -246 144 -374 -259 242 156 147 -372 270 249 138 -254 247 0
-245 267 -186 156 144 168 -269 374 141 -367 147 -260 -250 -246 162 249 138 -254 122 0
267 242 144 -246 -259 374 156 147 -372 270 249 138 -254 247 0
126 -374 267 367 -144 242 156 147 -372 -180 270 -246 -162 138 -254 153 0
126 -374 267 -180 367 -255 242 147 -144 270 -246 -162 138 -254 0
-242 -257 -243 -140 -156 -386 267 270 246 -144 249 138 0
267 -242 -372 147 269 270 -246 150 249 138 -254 0
267 -248 268 147 -148 -371 -149 374 156 -242 -257 270 249 138 0
126 -374 267 242 147 168 -263 150 270 -246 367 138 -254 0
126 -374 -263 150 415 267 242 147 270 -246 168 138 -254 0
267 168 259 -226 -269 -374 150 141 -242 156 270 -246 249 138 -254 122 0
-374 118 126 -381 -176 -226 267 246 144 -146 -242 156 -257 270 -259 138 0
267 -370 -146 -371 -148 -149 268 144 -244 -242 -257 270 249 -194 0
-259 267 -255 246 -374 -144 -140 -242 156 147 -257 270 -162 249 138 0
267 -374 -259 393 147 168 -255 156 -263 242 270 -246 249 138 -254 0
126 -374 243 115 -255 -381 246 144 -140 -242 147 -257 270 267 -194 0
267 -162 144 -269 141 -374 -259 242 156 147 270 -246 249 138 -254 122 0
-259 267 268 147 -232 -141 156 -242 -257 270 -162 249 138 -254 0
267 -232 270 -337 -224 -226 -146 -141 252 -242 244 -269 -150 -155 156 168 -246 208 39 249 138 -254 0
-373 267 -226 -141 -259 -146 -150 -155 270 39 249 0
267 168 393 256 -374 246 -259 -269 -242 156 147 -257 270 141 249 138 122 0
-252 267 -242 -371 374 -149 268 -148 147 -257 270 168 249 -194 0
267 -250 141 246 374 147 144 156 242 -257 270 -269 168 249 138 -254 122 0
267 -162 374 256 -167 -259 -269 -150 393 141 -242 156 147 270 -246 249 138 122 0
-269 267 -149 246 374 259 -144 -140 -242 147 -257 270 -162 249 138 153 0
267 -242 -259 -140 -144 147 156 -386 -255 270 -162 249 138 0
126 -141 267 -269 -374 144 242 156 147 270 -246 -162 138 -254 122 0
-250 -252 -256 144 208 147 374 -242 270 267 168 249 -194 0
267 -242 -258 147 -263 -372 374 -141 270 -162 249 -194 0
267 242 367 -374 -269 156 147 263 257 270 -162 249 138 -254 122 0
267 242 141 369 -176 -259 144 367 -374 156 147 -255 270 249 138 -254 0
267 -137 -367 374 -269 156 147 263 257 270 -162 249 138 -254 122 0
267 -252 377 -140 242 156 147 -374 -255 168 -259 270 249 138 -254 0
-225 267 -259 -244 -219 -252 -367 156 147 270 -162 249 264 -331 0
-144 -121 159 252 267 -258 100 216 261 259 -242 -270 -263 -246 162 138 -254 0
267 -168 242 156 -202 -246 -150 -270 -250 367 -269 159 138 -254 122 0
267 -168 -367 159 -269 258 147 156 144 -270 -250 -219 -246 162 138 -254 153 0
-263 168 162 111 257 144 -192 147 -256 -176 -270 -269 250 -242 267 264 -194 205 122 0
126 -375 -146 -252 -144 -242 168 267 16 -226 39 -270 -269 258 250 162 257 138 -172 153 0
-225 267 -180 144 156 393 -246 242 -270 -269 261 162 159 138 -254 153 0
267 -261 159 367 150 156 -236 242 -270 -372 168 144 -246 162 138 -254 122 0
267 -261 159 141 168 147 -252 367 258 156 -236 242 -270 -269 144 -246 162 138 -254 153 0
267 261 159 -146 -269 168 144 245 -195 -242 -270 -243 -246 162 138 -254 153 0
267 -370 270 144 -242 374 -244 168 -146 39 -263 249 -194 0
267 261 159 -141 252 144 123 168 269 -232 -155 -242 -270 -372 -259 -246 162 138 -254 0
-141 267 367 242 -259 147 -162 156 -257 -252 -263 138 -254 0
267 -195 150 -259 367 147 -255 -374 156 -144 242 270 -246 249 138 -254 0
267 -250 150 144 -243 259 -180 -374 -269 242 156 147 -195 270 -246 168 249 138 -254 122 0
126 -374 242 -259 -381 -176 147 -243 156 367 -195 144 270 -155 267 138 -254 0
267 -370 -242 -155 -140 293 -252 248 -137 -255 243 -167 -259 156 270 123 249 0
267 257 209 -115 252 -140 245 243 -269 -146 141 374 270 100 39 249 0
267 244 -269 -246 39 -146 245 -177 -168 -155 156 -232 -140 243 -270 -150 126 122 0
-140 -225 258 267 -168 -232 244 -146 -255 64 245 243 -270 -150 126 153 0
267 261 -180 156 367 242 -270 -372 -144 -246 162 159 138 -254 122 0
267 126 144 147 156 168 -246 -270 -250 -367 162 -269 138 -254 122 0
267 -144 -269 147 156 168 -246 -270 -250 -367 162 159 138 -254 122 0
267 -381 168 -259 266 141 -269 -176 144 147 156 -226 -246 -270 -250 -367 162 138 -254 122 0
-156 -255 -263 267 242 -144 367 -246 -180 138 -254 0
267 -250 -374 -156 246 16 270 -202 -269 -257 -242 249 138 -172 122 0
267 -250 -156 246 270 -202 -372 -242 -257 16 249 138 -172 122 0
-141 267 -242 -263 156 147 -219 -162 -257 268 -259 138 -254 0
-252 267 147 -150 -259 269 156 -242 -162 138 247 0
126 -374 242 -250 -337 144 147 -141 168 156 367 270 -202 -269 -246 267 138 -254 0
-146 -255 243 -162 -150 -258 267 245 209 -182 247 0
39 -144 -162 267 246 245 -146 -257 269 247 0
-385 -393 144 -146 -250 -256 267 -176 -195 245 156 0
-381 267 -259 156 -162 -242 -256 -372 269 147 -255 243 -176 138 247 0
-381 -242 -259 156 -176 -162 269 -182 267 -255 147 243 -256 138 247 0
-381 267 156 -255 -372 243 -259 144 -242 -176 147 269 -256 138 247 0
-422 -144 -150 -233 0
-422 -375 -225 -261 -370 -233 -235 0
156 269 -270 -372 -250 246 -267 -257 162 159 138 -254 247 0
156 -269 -246 -242 270 250 -257 162 249 138 -254 247 0
-269 156 246 -242 270 250 267 -257 162 249 138 -254 122 0
156 -242 270 -372 250 -257 162 249 138 -254 247 0
156 250 -374 270 -372 -246 -257 162 249 138 -254 247 0
156 250 270 -372 -246 -257 162 249 138 -254 247 0
261 -242 -246 156 260 -270 -372 267 162 159 138 -254 247 0
250 267 -242 -270 -372 -246 156 162 126 138 -254 247 0
261 -242 168 -246 156 260 -270 -372 267 162 159 138 -254 247 0
261 -242 246 156 260 -270 -372 250 267 -257 162 159 138 -254 247 0
250 267 -242 -270 -372 371 156 -257 162 126 138 -254 247 0
-242 126 -270 -372 250 267 -257 162 156 138 -254 247 0
261 242 -246 156 -270 -372 -257 162 249 138 -254 247 0
250 267 -180 242 -270 -261 -246 -372 156 162 126 138 -254 247 0
261 242 367 246 156 260 -270 -372 267 -257 162 159 138 -254 247 0
261 242 246 156 260 -270 -372 267 -257 162 159 138 -254 247 0
267 -261 144 168 250 -246 242 -270 -372 -150 156 162 126 138 -254 122 0
261 -242 371 141 156 144 -248 269 246 -140 -270 -372 267 -257 162 159 138 247 0
144 -242 371 141 -269 156 246 -270 -250 -257 162 159 138 122 0
126 -367 246 162 -270 -372 -250 -257 -147 156 138 -254 247 0
-252 -367 371 141 168 -269 246 156 -270 -250 -257 162 159 138 -254 153 0
261 156 -374 147 -269 246 -242 270 267 -257 162 249 138 -172 122 0
126 -367 -219 141 -269 168 144 258 246 156 -270 -250 -257 162 -243 138 -254 153 0
-252 -367 156 168 144 258 246 -111 -270 -250 -257 162 159 264 -254 153 0
261 156 -269 -242 -246 168 -270 267 162 159 138 -254 153 0
261 156 -168 -269 -242 -246 144 -270 267 162 159 138 -254 153 0
261 156 141 168 255 147 -225 -374 -269 393 246 -242 270 -257 162 249 138 122 0
261 267 208 168 147 141 -374 -140 269 -246 156 270 -372 -242 162 249 138 247 0
261 -242 -168 144 -246 156 260 -270 -372 267 162 159 138 -254 122 0
261 267 -168 242 147 -374 144 -246 -269 270 156 162 249 138 -254 0
261 267 242 -374 147 168 -246 -269 270 156 162 249 138 -254 122 0
-226 156 261 -371 168 -374 269 -382 246 -242 270 -372 -257 162 249 138 -172 247 0
256 -242 156 243 -140 -195 -227 144 -259 261 168 246 -270 372 -257 162 159 138 247 0
255 156 144 -272 168 -259 269 261 246 -242 270 -372 -257 162 249 138 -254 247 0
255 156 168 -147 141 144 -259 269 261 246 -242 270 -372 -257 162 249 138 -254 247 0
261 156 168 -255 269 374 246 -242 270 -372 267 -257 162 249 138 -172 247 0
261 156 -374 -147 -269 246 -242 270 -257 162 249 138 -254 122 0
-242 16 -147 156 246 261 260 -270 372 -257 162 159 138 -254 247 0
-248 156 168 371 -269 -147 144 -374 261 246 -242 270 -257 162 249 138 153 0
156 162 168 371 -255 -147 -374 -269 261 246 -242 270 -257 -233 249 138 -254 153 0
261 156 -385 -119 -147 -269 374 246 -242 270 -257 162 249 138 -254 122 0
259 156 -119 -147 261 374 -269 168 246 -242 270 -257 162 249 138 -172 153 0
261 257 -242 -140 374 168 141 -269 270 156 162 249 138 153 0
250 257 144 -252 -242 168 -374 -261 270 258 156 162 249 138 122 0
261 257 -243 242 168 141 -374 269 270 367 -372 156 249 138 -254 247 0
257 -242 168 144 261 269 -270 16 -372 156 162 159 264 138 -172 122 0
261 269 168 -144 257 -242 -270 16 -372 156 162 159 138 -172 122 0
250 257 111 147 144 -242 269 168 -270 -261 -372 156 162 159 264 138 122 0
121 -375 -141 147 168 144 156 242 269 -270 367 -372 257 162 159 138 -254 122 0
261 121 144 168 257 242 269 -270 367 -372 156 162 159 138 -254 122 0
261 121 141 147 144 257 242 269 -270 367 -372 156 162 159 138 -254 247 0
156 -168 150 -367 242 -269 144 -261 375 -246 -270 250 267 162 126 138 -254 122 0
250 257 -245 -375 -219 -235 -261 147 168 270 -269 -367 -386 156 162 249 264 -331 153 0
250 162 219 -263 -192 147 168 270 -259 246 156 249 -254 247 0
250 257 141 -252 -219 -235 -261 168 270 -269 -367 374 156 162 249 264 -331 0
261 372 -141 168 -246 -147 156 270 -242 162 249 138 -254 247 0
267 257 141 209 144 245 -146 -242 -269 374 156 270 367 261 162 249 138 -254 -181 0
250 257 -195 -242 -374 -261 375 168 -243 270 367 -269 156 162 249 138 -172 153 0
261 257 -243 252 168 374 156 -242 269 270 -372 -140 249 138 247 0
126 -374 156 367 242 267 141 147 270 168 -250 257 162 -269 138 -254 153 0
261 -140 374 144 -243 156 -242 269 -147 270 162 249 138 -254 247 0
250 257 -270 144 168 -255 269 -367 -372 141 156 162 159 138 -254 122 0
-381 -242 123 147 156 -140 141 261 144 269 -270 -372 257 162 159 138 -254 0
-248 -141 156 242 144 147 168 -245 -258 -270 367 -372 257 162 159 138 -254 -181 0
156 168 -259 -367 261 144 270 147 162 249 138 -254 247 0
-375 121 250 147 257 144 141 393 -242 269 -270 -261 -372 156 162 159 138 122 0
-268 -242 168 -386 -121 144 156 261 269 270 -252 162 249 138 247 0
372 257 -242 243 144 270 256 147 156 250 162 249 138 247 0
-374 372 147 168 141 -367 -243 270 -219 261 156 257 126 138 -254 247 0
261 257 -270 141 168 144 269 -367 -372 156 162 159 138 -254 122 0
126 -374 -242 141 257 -140 168 -125 -269 -260 156 162 261 138 153 0
-245 372 -242 -140 -377 147 141 156 270 168 261 257 249 138 247 0
156 261 141 367 168 144 270 162 249 138 -254 247 0
-374 256 147 -259 -367 261 144 168 270 156 -219 372 257 162 126 138 -254 247 0
261 372 168 -140 -377 -370 147 118 270 -259 156 -242 257 249 138 247 0
-374 372 256 -243 -367 -195 156 144 -219 270 147 261 -155 257 162 126 138 -254 247 0
375 -261 141 -242 272 168 156 250 -243 367 -259 162 138 -172 0
-235 162 168 -150 250 269 123 -252 -245 -372 156 -242 138 0
156 -263 147 249 138 -254 247 0
367 156 147 249 138 -254 247 0
-150 156 147 249 138 -254 247 0
156 147 249 138 -254 247 0
-225 261 367 -374 -156 246 242 270 -372 -257 162 249 138 -254 153 0
-225 -261 371 -156 -242 144 246 -269 -270 -372 250 -257 162 159 138 -254 122 0
-225 126 367 -261 246 242 -270 250 -257 162 -269 138 -254 122 0
-225 -261 144 367 -150 -168 156 -375 -246 242 -270 -372 -202 126 138 -254 122 0
126 -371 113 156 -243 141 147 -225 -367 144 258 -261 246 -270 250 -257 162 -333 264 -254 153 0
-225 261 168 269 144 156 -141 -246 242 -270 -372 267 162 249 138 -254 247 0
-225 261 367 269 -168 141 -140 156 144 -246 242 260 -270 -372 267 162 159 138 -254 122 0
-225 242 371 -367 261 246 -156 -270 -372 -257 162 159 138 -254 247 0
-225 261 367 147 -195 -168 141 269 144 156 -243 -246 242 260 -372 162 159 138 -254 122 0
-225 -371 -269 -242 144 261 -156 246 168 -270 -257 162 159 138 -254 153 0
375 -225 162 247 250 147 -367 269 150 -246 138 -254 0
-225 -119 156 168 261 147 -242 -270 372 -257 162 159 138 247 0
-225 -119 144 168 261 147 -148 -149 -371 -242 -270 372 -257 162 159 -194 247 0
-225 250 -242 -192 259 -243 -263 144 -150 -195 156 -269 -374 -176 270 -246 162 249 138 -254 0
261 -225 144 -219 141 -246 168 147 156 -367 260 -270 372 162 159 138 -254 247 0
-225 -156 -246 -258 367 168 144 261 150 -141 242 -270 -372 267 162 159 138 -254 0
261 -225 -246 144 156 -269 -393 242 -270 267 162 159 138 -254 153 0
261 -225 -246 156 144 -393 242 -270 -372 267 162 249 138 -254 247 0
261 -225 144 141 -219 -246 168 156 147 -243 -367 -270 372 162 159 138 -254 247 0
242 -224 -259 -246 141 -140 367 -225 147 -255 156 -168 -256 138 -254 0
-225 250 -243 -324 144 259 -263 -150 -195 156 -269 -374 -242 270 -246 162 249 138 -254 0
-225 -248 -144 242 150 -168 156 367 -246 138 -254 0
-225 162 374 -219 209 258 -144 -367 261 245 270 267 -246 249 264 -331 122 0
-225 126 367 168 156 267 -270 -372 -250 147 -246 162 138 -254 247 0
-225 -250 147 367 159 168 144 269 156 -372 267 -270 -246 162 138 -254 247 0
-225 375 147 156 272 100 257 -242 -261 252 -270 258 250 162 159 138 153 0
-225 126 -252 144 -242 -374 168 147 270 -269 250 162 257 -194 -181 0
-374 -225 -242 -140 -226 -261 -243 270 250 162 126 138 0
-225 126 -252 141 168 -219 118 267 -226 -270 -235 -367 -269 250 162 257 264 138 -331 211 0
-374 126 -367 -261 -226 -219 270 250 162 -225 264 -331 0
-225 250 -144 156 -261 267 -374 16 -242 -255 147 270 -259 162 249 138 -172 0
-225 -176 258 369 -141 -367 147 -270 168 -250 257 162 159 264 -254 153 0
-370 -225 -144 -168 0
-225 -252 -261 147 156 -242 168 -259 270 162 249 138 0
-225 250 -367 156 -192 267 144 369 -263 147 168 -226 270 -259 246 162 249 264 -254 247 0
-225 -252 162 -244 250 267 144 168 -261 -219 -226 156 -235 -259 -367 264 205 -331 0
-225 261 -144 -141 168 -367 -270 147 372 257 162 138 -254 247 0
-374 -225 246 -226 -156 -141 270 -257 126 0
-221 -168 -333 -226 243 -225 -150 0
372 -225 -242 -141 -252 168 -156 147 -194 247 0
-176 -225 -256 141 -246 -140 156 242 -255 367 -259 267 -168 144 138 -254 0
-263 -225 270 267 367 -242 144 168 -256 147 156 -259 257 162 249 138 -254 122 0
126 372 -374 -156 -252 -242 168 270 -246 147 -225 138 -254 247 0
126 372 -374 -144 -252 -242 147 270 -246 168 -225 138 -254 247 0
-225 -156 -242 -252 -150 374 270 249 -194 0
-125 -225 -246 168 156 367 147 -144 -374 -269 261 242 270 162 249 138 -254 122 0
-225 267 -144 -252 -242 168 147 246 -156 270 371 -257 249 -194 0
-225 -250 246 -195 -374 415 242 156 147 -372 -257 270 144 168 249 138 -254 122 0
-225 242 -141 -246 374 144 156 147 270 249 138 -254 247 0
126 123 -225 367 -374 -144 242 156 147 270 -246 -162 138 -254 0
-374 126 147 -219 -259 -367 125 -246 150 156 270 -225 264 -331 0
-374 -144 126 367 -142 123 150 -225 242 156 147 270 -246 138 -254 0
367 -225 -180 150 -243 -156 -246 -144 242 138 -254 0
-156 -263 -246 -180 367 -225 -255 -144 242 138 -254 0
266 -255 -156 168 -150 144 367 -263 242 -225 -246 138 -254 0
-225 -371 -252 -227 -269 141 -219 268 259 -367 374 144 -137 156 147 -336 270 -250 168 249 138 -254 0
-156 -150 -226 -246 252 -263 -368 -140 243 -225 100 216 -255 0
-385 126 256 -269 -374 -150 -167 -232 393 141 -242 156 147 270 -162 -225 138 122 0
-225 156 246 -259 -242 147 -374 -336 -252 268 -52 168 270 -227 249 138 0
126 -374 246 -225 415 147 156 242 -257 270 -259 138 -254 0
126 -374 246 -225 367 147 156 242 -257 270 -259 138 -254 0
-225 156 -252 -259 -367 -246 374 147 270 -162 249 264 -254 0
-374 -243 150 -219 156 -259 -195 -231 -233 -246 242 -225 147 -180 270 138 -254 0
-225 -259 -255 16 147 -144 267 168 -242 156 -263 270 249 138 -172 0
-370 -225 -144 -242 -167 -156 -252 -137 0
126 -374 -225 -370 270 -141 -156 0
-371 268 -148 374 267 147 -225 168 -252 270 -242 -257 249 -194 0
-244 -225 -260 123 242 144 156 -125 147 111 367 138 -254 0
-225 -250 -367 246 -374 270 -202 -257 -269 249 138 -254 122 0
-225 -250 -195 -231 -393 244 144 -269 -374 -263 156 147 242 257 270 -259 168 249 138 -254 0
-225 257 -374 -269 208 29 252 244 -367 270 168 -137 -226 -250 249 264 -254 0
126 -374 -224 -226 -381 246 270 -257 -225 0
-225 257 156 270 -256 168 144 -252 -242 267 147 -259 249 138 -181 0
-225 -144 -242 -259 -255 156 267 168 -252 16 147 270 249 138 -172 0
-374 -158 252 -226 377 -263 242 270 -225 216 100 -185 74 138 -254 0
126 115 -381 144 168 147 -252 -242 246 -374 270 -257 -225 -194 0
-225 156 -141 -244 -367 -259 374 147 270 -162 249 264 -254 0
-374 -158 -244 252 144 377 -263 147 242 270 -225 216 100 -185 74 138 -254 0
-374 126 377 270 -139 -263 16 -242 252 168 118 267 -226 -255 -225 138 -172 0
-374 126 -243 -242 -225 -140 270 -370 138 0
-225 -195 113 -125 243 -226 -260 0
-225 -156 -150 -224 -269 -246 263 267 -226 -146 39 168 -140 -270 243 159 122 0
-422 -225 -370 -233 -371 -227 268 -336 0
-234 -367 156 -386 -243 -252 -259 -225 -219 -150 -370 264 -331 0
126 -374 -259 144 156 -250 147 -381 270 -202 -367 -225 264 -254 0
-225 -250 -374 -367 267 -372 270 -202 -137 -246 249 264 -254 122 0
-239 -141 -231 -263 -242 -225 156 252 147 -162 138 0
-225 -250 246 147 -269 270 -202 -367 -257 249 138 -254 122 0
-225 257 263 -370 -244 144 156 -269 -367 147 270 -202 168 -250 -386 249 264 -254 247 0
-381 -225 -259 -162 144 -242 -372 -243 269 123 16 -176 147 156 138 -254 0
121 -225 -162 245 267 -150 -367 269 264 -254 247 0
-226 -381 -141 -176 269 367 267 123 -146 -246 39 156 144 242 -372 -225 138 -254 122 0
117 -371 -242 -269 -156 261 246 144 -270 -257 162 159 138 -254 153 0
259 162 -242 -374 141 144 261 -269 156 150 270 -246 249 138 -254 0
-234 261 259 -386 150 141 -242 -269 156 144 -246 162 138 -254 0
-192 267 -269 144 -243 -263 -150 374 156 -195 -246 -242 270 259 250 162 249 138 -254 0
126 -374 259 -242 141 -144 261 -382 -269 156 150 270 -246 162 138 -254 153 0
259 250 141 150 144 -386 -269 156 -242 270 -246 162 249 138 -254 0
259 -269 371 -261 -374 -147 246 -242 270 250 -257 162 249 138 -172 153 0
256 261 144 259 156 260 162 159 0
126 -261 -242 168 144 156 267 -246 -270 259 250 162 -269 138 -254 122 0
-168 375 -242 -255 144 259 -150 156 -246 -261 -270 -372 250 267 162 159 138 -254 122 0
-242 269 159 371 -263 168 261 246 -144 -270 -372 267 -257 162 259 138 -172 247 0
-242 -258 159 168 371 -121 -263 261 246 -144 -270 267 -257 162 259 138 -172 0
-266 375 159 250 252 168 156 -258 -270 -372 -246 259 0
-245 261 156 168 -111 259 147 -269 -186 150 -246 242 374 249 138 -254 153 0
126 258 144 168 250 -252 -367 -219 375 246 -270 -371 -257 162 259 264 -331 153 0
261 267 374 144 259 209 -150 245 156 -246 242 270 -269 162 249 138 -254 153 0
126 261 -269 -147 -263 -374 144 105 243 -140 141 156 -150 -246 -242 -260 162 259 -194 0
-144 156 250 168 -269 267 375 -150 -242 -270 -246 259 162 159 138 -254 153 0
-225 126 -141 250 -269 144 -149 258 156 -261 168 -148 268 -242 -270 -371 -257 162 259 -194 153 0
261 259 144 256 162 168 156 263 -102 0
-192 267 -269 -263 144 -150 374 156 141 -246 -242 270 259 250 162 249 138 -254 0
259 162 242 374 261 -245 -186 -269 156 147 144 -246 249 138 -254 153 0
126 -374 147 168 263 -102 -118 261 -141 367 156 -371 121 246 242 270 -372 -257 162 259 138 -254 0
261 -176 224 242 374 -245 147 -269 -186 -219 -246 259 156 249 138 -254 153 0
261 -269 374 -244 -245 259 147 -150 -186 -219 -246 156 242 249 138 -254 153 0
-245 -372 156 121 259 -150 -219 269 147 -367 374 -246 -186 261 162 249 264 -331 0
-111 259 156 261 -150 -269 -367 374 -147 -186 162 249 -136 -254 153 0
-234 156 256 -242 -258 168 263 261 150 -147 -386 -246 -121 162 259 138 -254 0
126 242 -147 144 -269 156 168 246 259 -270 -250 -202 -257 367 138 -254 122 0
126 375 -255 150 250 144 243 -140 -261 156 -242 -270 -372 -246 162 259 138 -254 122 0
-370 -374 259 118 243 261 -140 141 -260 -368 257 162 126 0
-284 259 124 263 -102 256 29 261 -31 168 208 -176 156 162 0
375 267 -242 -372 -150 144 168 156 -246 -266 -270 269 259 250 162 159 138 -172 0
263 259 144 -102 168 121 -371 261 -227 -386 269 156 268 -242 270 -372 -336 162 249 -194 247 0
-234 -367 156 261 -111 -246 -386 -140 259 150 -269 -333 113 168 264 -254 153 0
-256 -242 -245 250 -269 -176 168 -261 156 -246 144 -270 259 162 159 138 -254 153 0
-244 -234 156 -141 150 -111 259 261 -269 -386 -147 -246 -176 -254 153 0
259 126 147 246 -374 -144 -140 -269 -242 -257 270 -162 -245 138 153 0
267 -372 147 -246 259 141 150 156 -242 374 270 168 249 138 -254 122 0
126 -374 259 141 -246 -225 144 242 156 147 -372 -260 -162 -150 138 -254 122 0
259 -267 367 246 -374 144 242 156 147 -372 -257 270 -162 249 138 -254 153 0
256 168 -140 374 246 144 252 141 -242 156 -372 -257 270 259 249 138 247 0
256 259 -140 -263 374 246 144 252 141 -242 156 -372 -257 270 249 138 0
-256 126 246 156 -141 -269 -137 -374 -242 147 -257 -260 -162 259 -194 153 0
-374 259 150 144 -263 -195 -246 -267 -269 242 156 147 270 -250 168 249 138 -254 0
-242 168 147 -255 -246 259 243 -140 150 156 374 -372 -186 -267 249 138 -254 153 0
-252 259 -140 -144 -255 147 156 -372 -386 -242 257 270 -162 249 138 211 0
-252 -250 -256 144 147 156 374 -242 257 270 259 168 249 -194 247 0
208 256 259 263 168 156 257 0
372 -137 168 144 -242 270 -202 259 -246 255 -250 249 247 0
263 259 168 156 144 256 -269 122 0
-269 168 -252 144 -111 -245 374 141 156 147 270 259 249 -254 0
144 267 -219 -180 -195 -246 259 374 242 -372 147 270 249 138 -254 247 0
259 147 -372 252 -140 -242 269 -257 156 -263 246 -270 -162 159 138 247 0
-263 147 -176 324 -258 252 -242 259 257 -141 -270 -162 159 -194 247 0
-263 147 -176 -258 -239 -372 242 259 -219 257 -141 -270 -162 159 138 -254 -181 0
259 -263 144 -195 -140 -176 269 377 -372 242 257 367 -255 147 -270 168 159 138 -254 -181 0
-141 -252 -225 -176 258 -257 259 -137 -367 156 147 -270 -162 159 264 -254 153 0
259 -252 269 -257 -219 -367 156 147 249 138 -254 247 0
259 -252 119 -219 -167 141 269 -245 -367 156 147 249 138 -254 247 0
259 -252 144 -167 -111 -176 269 257 -245 147 -270 159 -254 247 0
259 147 252 -242 269 367 156 -263 -246 249 138 -254 247 0
259 147 252 -372 -242 269 367 -263 -246 -270 -162 159 138 -254 0
259 147 -372 -140 141 -142 252 -245 -242 321 269 -257 156 -263 246 -270 -250 168 159 138 247 0
-150 -263 -372 252 -246 -242 269 16 259 147 -270 -162 159 138 -172 0
257 147 -333 -372 377 393 141 113 -176 269 252 -242 144 -263 259 -270 168 159 138 -254 -181 0
257 147 377 -255 269 252 -242 393 -263 259 249 138 -254 247 0
259 -252 -246 -245 -372 -137 242 321 -258 367 156 147 -270 -162 159 264 205 -172 0
168 -225 147 259 159 242 156 -269 246 -144 -270 -250 -202 -257 367 138 -254 153 0
-266 -372 252 156 243 141 -140 -257 259 144 246 -270 269 168 159 247 0
337 -284 -266 263 321 259 -324 168 156 153 0
-381 245 150 144 -242 -176 121 -246 269 259 267 -255 243 -219 156 209 159 138 -254 247 0
-324 259 144 256 258 263 156 122 0
-224 252 243 -246 -372 -121 100 -258 259 144 -263 -270 141 159 0
410 -374 -219 270 -367 -259 -155 126 264 -331 0
410 252 270 -263 100 -155 269 -259 249 247 0
240 -374 410 147 -259 -263 168 -245 -155 377 -260 126 0
-374 65 270 -155 -372 410 269 -259 249 247 0
410 141 243 -370 257 -140 156 267 121 -372 269 -270 -368 407 159 0
248 -242 371 144 168 269 -155 -259 246 261 -270 -372 267 -257 162 159 -194 247 0
261 372 -259 248 -377 156 -155 147 270 168 -370 257 249 247 0
248 250 -259 -219 -261 -367 -235 -260 -386 162 249 264 -331 0
248 -259 -371 246 -144 -155 -257 270 -162 249 0
252 248 100 -263 -259 -111 -254 0
248 -155 -259 -144 -371 242 -148 -257 367 -162 138 -254 0
368 243 -259 248 -150 -367 -162 -254 0
372 -162 248 -150 -259 -367 -182 -254 247 0
113 248 -255 -257 246 -162 268 -259 -144 -155 243 0
-139 252 -259 -141 100 242 248 -263 -246 156 138 -254 0
-226 252 -246 267 216 -259 242 248 156 -225 100 -263 138 -254 0
252 248 100 156 242 -371 268 367 -263 -148 -259 -257 138 -254 0
377 123 144 269 -242 257 -192 -167 252 100 -259 -263 -256 -372 -155 248 -194 -181 0
-232 250 -259 -168 -374 -155 -261 -242 270 -246 162 249 138 -254 0
-232 261 -155 -121 -258 156 252 -246 242 -270 -372 162 159 138 -254 122 0
-252 -242 -167 65 -141 261 -232 -269 156 -259 246 -144 -270 267 -257 162 213 -194 211 0
-227 -371 -259 -232 -195 147 124 -243 -231 144 115 268 -242 -270 250 -257 162 138 -254 211 0
126 -367 111 258 -269 168 144 156 246 -232 -270 -250 -257 162 256 138 -254 153 0
267 245 168 -155 -266 -259 -269 -252 -232 -261 64 -242 -270 -150 250 162 159 138 -172 211 0
-382 -367 147 -219 -269 141 168 156 246 -232 -270 -250 -257 162 159 138 -254 122 0
-232 257 243 -374 -144 -140 -168 -269 270 261 162 249 0
-115 261 -155 -232 243 156 144 -140 141 -269 257 162 0
-232 257 -155 243 -140 -224 156 -374 144 141 -269 270 261 162 249 -181 0
-232 250 242 -374 367 -261 270 -259 162 249 138 -254 0
-232 -245 -155 -256 -242 -259 123 -168 371 246 144 -257 -194 0
-235 -263 162 -372 -150 -259 -261 269 252 100 250 -232 -246 -242 156 123 -245 -194 0
-232 -242 -144 150 -259 -141 -155 267 270 -246 249 138 -254 0
-234 -232 -386 -111 -259 -254 0
-234 -231 -367 147 -386 -246 144 -137 -256 -232 -245 150 -254 0
-232 267 168 -263 -155 -374 -150 -140 -195 -259 -246 -242 270 -243 249 138 0
-232 -246 -155 150 -374 256 141 -259 -242 147 -372 270 249 138 -254 0
-232 377 -192 -367 252 -263 -259 100 270 -155 249 264 -254 0
-232 123 -125 111 242 -260 138 -254 0
-232 123 -155 242 -125 111 -260 138 -254 0
-250 257 -374 258 144 156 -155 244 -367 270 168 -137 252 -232 249 264 -254 122 0
-250 257 100 -263 258 156 -155 -374 -224 144 -367 270 252 -232 249 264 -254 153 0
393 -337 243 -183 141 263 209 245 118 267 65 -242 -146 256 -269 156 168 270 -202 -137 -232 -250 249 122 0
-374 126 -370 -259 -252 -155 -221 243 -242 267 -137 -232 270 -333 -167 0
-374 -221 111 -232 -333 -231 243 367 -233 -259 242 270 138 -254 0
-374 -224 -232 -263 -231 252 100 -381 270 126 0
65 -232 -224 -259 -257 -147 -141 -250 246 -256 -155 0
65 -232 252 -224 -147 -141 -256 -269 -155 156 168 246 -270 -250 -257 159 153 0
-232 -263 150 -242 100 -259 267 -155 252 147 270 -246 249 138 -254 0
-374 -245 270 147 -155 -263 -232 16 -242 -259 252 -333 -139 100 377 113 126 138 -172 0
-246 -232 -259 266 150 -242 -155 144 270 249 138 -254 0
-246 -232 -259 -242 -256 144 -176 -155 150 270 249 138 -254 0
126 -374 252 65 -192 156 257 -176 144 -263 -242 -183 270 -202 -137 100 -232 258 -250 153 0
256 -232 267 -226 243 -192 141 -140 118 252 -246 144 -263 156 100 -155 270 -269 249 0
-234 126 -246 -269 -385 -267 252 144 -260 168 -232 -115 153 0
-141 -263 -232 252 269 -385 -162 247 0
-255 252 -385 -232 -140 243 100 -263 0
-232 -252 -176 123 168 -381 -372 144 269 -259 367 242 138 -254 0
-385 -242 -372 269 123 -259 -141 252 100 -263 -246 -232 138 -254 0
-231 -232 -333 168 -221 268 -242 -226 -371 -225 -227 -259 243 -336 -252 -194 0
-374 -252 -367 -225 -226 -257 -232 268 -385 -162 264 -254 0
-232 -224 -385 -246 243 267 -140 141 -259 -269 -180 -367 156 -263 147 -270 -162 159 138 -254 211 0
-232 -263 144 -155 150 -246 -245 -176 258 252 242 -111 147 -270 100 126 138 -254 153 0
243 -367 -232 -259 -246 147 -255 216 -140 150 -263 -167 100 156 267 242 138 -254 0
-232 -263 141 -180 -155 -246 144 -219 150 -269 258 252 -367 -245 147 -270 168 126 138 -254 153 0
-232 243 -140 -385 100 252 -246 -255 -263 0
-162 -232 -150 -259 -255 -140 243 156 -263 252 0
-263 -232 100 -246 -269 243 141 -111 -155 156 252 -140 -270 159 -254 153 0
-225 243 -232 -259 -246 -333 -155 147 -221 -367 -252 -167 150 264 -254 0
-232 -242 -202 -246 -226 141 269 144 243 168 -225 -270 -372 -263 -250 267 -137 159 0
-232 -162 -155 -224 -269 243 263 -374 368 -147 -260 -246 249 122 0
-232 -111 -263 244 100 242 252 144 -155 258 -246 -270 126 138 -254 153 0
-232 -263 -155 -150 -246 -245 258 -269 252 242 156 -111 147 -270 -162 126 138 -254 153 0
-381 -176 -242 -141 -162 -252 -137 -231 -232 0
-263 267 -255 -144 -242 -232 -246 168 156 -259 138 -254 0
-257 -371 120 270 -147 -202 168 374 -269 -232 156 263 -141 -137 -250 -242 65 249 122 0
-255 -232 -150 243 -140 -146 -155 -259 245 -258 64 209 -270 -162 247 0
252 -232 -367 243 100 -155 -246 141 258 -269 -263 144 244 -219 -140 -270 126 138 -254 153 0
-232 -244 -242 144 -258 147 123 -155 -121 267 -194 0
-232 -224 -150 -155 -372 -259 -258 243 252 -270 -162 159 122 0
-232 245 243 209 -146 -121 -255 -155 -372 -270 -258 122 0
-232 -242 -255 -155 150 -259 245 -219 269 243 -257 144 64 147 249 138 -254 247 0
-232 -382 -195 -121 -255 -258 -144 -242 -246 -385 138 -254 0
-255 267 -232 243 -385 -150 -259 -146 245 64 209 -162 0
-176 -225 -162 -146 245 -150 144 -256 -385 -243 267 -367 -232 264 -254 0
-232 113 -111 -382 147 -259 -263 -195 168 -254 0
-232 -385 -269 -111 -224 243 141 -270 159 -254 211 0
-224 -232 243 -259 -150 -155 -258 -182 263 -270 -162 159 247 0
-232 123 269 -150 -155 267 245 209 -162 247 0
-232 121 -226 144 -385 -243 269 -137 -367 263 147 -270 -162 159 264 -254 247 0
245 -232 267 -256 -155 210 209 -242 -176 -259 144 246 46 269 -146 -257 -250 -194 247 0
-232 -226 -385 -375 267 -333 -261 -221 -235 243 0
-232 -385 -121 -140 -224 243 141 252 -246 168 -372 -270 -258 159 0
-226 -225 -149 -221 118 243 -367 -244 -232 113 144 267 -259 -333 -246 -195 264 -254 0
-231 -250 -257 -255 147 141 -232 64 -219 -259 246 -382 -367 -202 138 -254 0
-232 -385 -250 -227 147 141 -52 -382 113 268 -336 -333 -202 246 0
-385 -221 -219 243 -226 -333 -232 118 267 -367 264 -331 0
-232 245 -242 -255 150 -221 -259 144 -155 -246 269 243 -219 147 249 138 -254 247 0
-242 -221 -259 269 243 150 245 267 -155 -146 -246 -255 -232 -219 209 138 -254 247 0
-117 -232 267 144 252 -385 -224 168 -246 -270 -269 159 153 0
-232 -385 -257 -263 111 168 156 -259 246 -202 -250 -367 138 -254 0
-119 243 -266 -148 258 65 -155 144 156 -371 -140 141 -232 -270 -257 159 153 0
-232 -263 377 246 -144 -162 -155 119 -257 252 -259 0
-232 -263 100 252 -257 -242 246 -140 -259 156 -255 138 0
-232 -263 246 156 100 113 119 -257 -140 252 -259 -242 -333 138 0
-176 243 -140 -385 -255 144 -263 369 -242 -232 252 -246 156 138 0
-147 -162 123 246 -257 269 -232 -155 247 0
-232 -263 156 252 -242 113 -333 371 246 -140 -257 -259 119 272 138 0
-232 -111 -269 263 -224 -155 156 144 -270 168 159 -254 153 0
-115 -232 -259 -256 242 -155 138 -254 0
-232 -121 -258 123 -257 246 -155 0
-155 65 -372 269 -176 -259 144 -381 -140 -232 243 -231 -255 121 242 -137 138 -254 0
-232 269 -180 -367 210 246 46 -219 119 -385 -182 247 0
-232 -176 -255 -259 -246 150 144 -195 -385 -256 -242 -155 138 -254 0
-232 65 -242 243 -140 -195 121 168 -255 -259 -155 -257 -252 246 64 269 -194 247 0
-255 -115 -256 243 -259 -140 -155 -232 0
375 250 -372 -258 -263 252 100 -246 0
250 375 -367 121 -372 -263 100 252 -219 269 264 -331 0
-243 65 -246 -372 -155 -259 385 -168 -195 269 122 0
385 126 -374 -259 -147 -150 -260 -155 0
385 -367 -259 -147 -150 -155 -254 0
385 -245 -259 -145 -257 -168 -256 144 246 -243 -242 138 -254 0
385 -324 263 -386 144 -259 -147 -150 141 156 258 -246 -242 270 250 162 249 138 -254 122 0
385 65 -259 -255 -257 -256 -166 144 -242 156 246 -176 -168 138 -254 0
385 257 243 -155 -144 -140 -168 -269 270 261 162 249 0
-250 400 -372 150 65 -155 -183 123 121 -246 269 385 122 0
385 -372 65 -183 269 150 -250 -155 -246 400 123 122 0
126 123 385 -155 -374 -147 -260 -141 0
385 -144 250 -168 -259 -261 -155 123 246 -227 -336 162 0
385 261 141 -155 -246 150 -259 243 168 269 367 242 -270 -372 159 138 -254 122 0
385 123 -144 -155 -168 -259 0
385 -139 113 -333 -155 -259 -252 65 168 119 246 -242 270 -257 249 138 0
385 -242 -140 168 243 -255 -259 -263 156 -246 374 270 249 -194 0
372 -115 -246 -377 -150 -147 -155 -140 168 243 -102 -270 -255 385 159 247 0
126 385 -137 -374 -155 -242 270 -202 65 -183 -250 123 0
-252 -372 150 -246 385 -167 123 -155 269 65 122 0
385 -162 -150 -155 -367 -259 -254 0
385 -226 64 210 -259 -225 -257 -219 246 -367 267 264 -331 0
-225 385 -259 -367 267 -370 -219 264 -331 0
-368 385 -259 243 -162 -144 -255 64 -155 0
-221 385 -333 -219 -259 -367 -226 -155 243 -225 267 264 -331 0
-263 252 -242 -246 385 269 -219 156 -259 -162 138 -254 247 0
385 -231 -225 168 246 267 -195 -259 -243 -219 -367 371 147 -263 -257 264 -331 0
268 375 -245 -269 -227 -373 147 168 144 -231 -148 -149 -371 -242 -270 250 -257 162 159 -194 153 0
-373 261 -386 168 263 -245 -102 -141 -146 124 -150 156 269 -246 -242 270 162 249 -194 247 0
-377 -373 144 100 -263 156 -115 261 -246 260 162 159 0
-373 -377 -140 100 141 243 -368 156 -263 261 -246 -270 162 159 0
-373 -150 -115 -147 -155 -269 263 393 244 -259 243 270 249 122 0
126 -374 -150 -373 -155 -259 -260 -168 0
-231 -373 -259 -147 -150 0
-373 250 -155 -261 -259 150 -246 -242 270 125 162 249 138 -254 0
-231 -373 252 -235 -259 250 -225 -263 168 156 -226 -246 0
-373 257 -259 -244 144 252 141 243 -155 -242 -261 -140 -269 270 374 250 162 249 -194 0
-374 -155 -141 111 -232 -373 242 123 -147 -260 126 138 -254 0
-373 261 -372 -224 -242 -263 -259 252 269 100 -140 156 -246 123 -270 121 162 159 138 -254 0
-234 -373 268 -259 243 -386 -140 -231 -371 -333 113 -227 -336 0
-373 267 -259 -242 147 -155 -232 150 125 -411 270 -246 249 138 -254 0
-372 -373 -155 -336 -259 -227 270 269 268 121 -371 249 247 0
-234 -373 243 -227 -259 -386 -371 120 -140 -231 -255 -257 0
-373 -371 -231 252 -186 374 -263 268 -227 -336 249 0
-373 -123 -259 -186 374 252 -263 156 -246 100 249 0
-373 255 393 -259 252 -269 -246 374 -267 156 -186 249 122 0
-374 -370 267 -225 -233 -259 -373 -231 270 0
-374 126 -373 -370 267 -233 270 -155 -259 0
-368 -373 -140 150 -255 243 -259 156 -246 -242 270 249 138 -254 0
252 -373 -246 258 -263 -137 242 156 100 244 144 -270 367 159 138 -254 153 0
252 367 -373 156 -246 -259 100 -263 242 -137 138 -254 0
-373 -231 -259 -144 -162 0
-373 255 -137 -259 65 -147 -377 168 -202 -224 -242 -270 -183 -150 -258 324 -250 -182 159 247 0
-370 -373 -269 -266 -146 -368 209 144 245 267 -232 156 -140 141 -270 243 159 122 0
369 -231 -195 168 -263 -373 -140 -243 -259 -242 144 -176 138 -254 0
-373 324 -258 -182 -146 209 -167 -242 -155 267 -370 245 -137 -252 -259 247 0
-373 -377 272 -246 -259 -263 156 0
-176 -141 267 -162 -146 -259 39 -226 -373 -256 -155 -252 -242 -137 0
377 -373 -242 252 267 -144 -195 168 -155 -246 -243 -259 138 -254 0
-373 -231 -225 -259 -370 -227 268 -336 267 -371 0
-231 -235 -261 -375 -373 -333 -221 -259 -225 243 -226 0
-373 -231 -244 -243 -195 -219 -259 -367 144 264 -331 0
368 -373 -231 243 121 -227 246 268 269 -259 -257 247 0
-373 -381 -221 -372 -137 -17 -333 -176 -232 144 65 -259 367 243 242 113 -155 111 121 -231 264 138 -172 0
-244 -373 65 -155 269 144 -372 -242 121 -259 -194 0
-373 372 -259 -224 -250 -155 -256 247 0
-113 -377 -263 -255 0
-113 -252 -255 147 367 168 -225 156 -259 242 138 -254 0
-113 -255 -252 267 147 367 156 242 -259 168 138 -254 0
-113 -370 -255 267 0
124 250 -367 -261 -374 -219 270 -259 162 249 264 -331 0
124 -245 156 115 144 -168 -259 -243 -242 -256 246 -145 -257 138 -254 0
-117 257 -373 -202 -263 374 156 65 -242 252 147 270 100 -137 -183 -250 -269 249 211 0
-250 257 -374 -269 65 -144 -242 -226 -232 147 270 -202 -137 168 -183 -141 249 153 0
-183 -227 -248 268 -219 -371 -367 -336 264 -331 0
-370 -377 -259 65 156 -202 -183 245 -242 147 168 -270 -137 -250 269 257 -373 159 247 0
-226 -183 258 -263 -246 65 -242 -382 144 156 168 -202 -270 -137 -250 -373 126 153 0
257 -368 -232 -373 65 -250 243 245 -146 -242 144 156 147 141 -270 -202 -183 269 -266 -137 159 247 0
-374 242 156 -269 -246 261 270 267 -180 162 249 138 -254 122 0
-245 -374 270 367 168 156 147 261 246 242 269 -372 -257 162 249 138 -254 0
-374 -245 -269 -367 261 168 147 156 246 242 270 -257 162 249 138 -254 153 0
-374 242 156 144 -269 -246 261 270 267 162 249 138 -254 122 0
-245 -374 168 147 367 156 -269 261 246 242 270 -257 249 138 -254 153 0
-374 -245 -263 168 -367 261 147 -269 156 246 242 270 -257 162 249 138 -254 0
-374 242 168 -255 144 -269 156 -246 261 270 267 162 249 138 -254 153 0
-374 242 168 156 147 -148 144 -269 -263 -246 261 270 267 162 249 138 -254 0
-374 126 156 168 -147 367 144 -269 -255 -246 261 270 162 242 138 -254 153 0
-374 126 -324 261 263 144 -248 -147 393 207 156 -150 -246 -242 -260 162 258 138 122 0
-374 267 -242 -156 -269 -243 -246 270 -150 250 162 249 138 -254 153 0
-374 162 -150 261 393 -156 -269 243 -242 270 267 -246 249 -194 122 0
-374 267 -242 -144 259 -192 156 -269 141 -150 270 -246 250 162 249 138 -254 153 0
-374 -125 156 -147 367 168 144 261 -269 -255 -263 -246 242 -260 162 126 138 -254 0
-374 126 156 -147 168 144 367 -269 -255 -263 -246 261 270 162 242 138 -254 0
-374 126 156 147 168 144 367 -269 -263 -148 -246 261 270 267 162 242 138 -254 0
-374 261 367 156 -147 -269 246 242 270 -257 162 249 138 -254 153 0
-374 250 -269 156 -147 367 -261 242 270 -246 162 249 138 -254 153 0
-374 261 367 -147 156 -269 -263 246 242 270 -257 162 249 138 -254 0
-269 -374 147 156 246 -242 270 250 267 -257 162 249 138 -172 122 0
-374 162 -242 261 -156 -269 141 150 270 267 -246 249 138 -254 122 0
-374 126 367 -156 147 -269 -246 261 270 267 -180 162 242 138 -254 122 0
-374 267 -242 -144 -150 393 207 -195 156 258 -248 270 250 -192 162 249 138 122 0
-374 250 -242 144 259 156 -269 141 150 270 -246 162 249 138 -254 0
-374 -269 156 -180 242 270 -246 250 267 162 249 138 -254 122 0
261 -374 -269 168 147 -255 144 156 246 -242 270 267 -257 162 249 138 153 0
-374 267 -269 -255 371 -156 246 -242 270 261 -257 162 249 138 -254 153 0
261 -374 -269 168 -141 147 156 246 -242 270 267 -257 162 249 138 153 0
-374 -150 141 -140 -269 -266 -259 -252 -137 -147 243 -155 -232 -242 270 162 249 0
-374 -176 -242 168 144 147 -261 259 -263 -192 141 156 -269 243 -246 270 250 267 162 249 138 -254 0
-374 258 -155 -259 -192 -144 -232 207 393 -150 -246 -242 270 250 267 162 249 138 122 0
261 -374 367 147 -269 -225 156 246 242 270 -257 162 249 138 -254 153 0
-374 126 -269 150 147 367 -141 -225 -156 -246 261 270 162 242 138 -254 153 0
-374 126 367 -147 -137 -269 -252 -246 -156 261 -260 162 242 264 205 -172 0
-374 126 -168 -140 -255 147 261 -269 156 246 -242 270 -257 162 -245 138 0
-125 -374 -245 367 147 141 144 -243 -269 261 156 -246 242 -260 162 126 138 -254 0
-125 -374 156 367 168 144 -263 -269 261 150 -246 242 -260 162 126 138 -254 0
-125 -374 367 168 156 147 -252 144 -269 261 -225 -246 242 -260 162 126 138 -254 0
-374 250 -269 -242 -259 156 144 141 150 270 -246 162 249 138 -254 122 0
-374 162 367 -255 168 -144 -125 150 -269 261 156 -195 242 270 -246 249 138 -254 153 0
-374 126 -168 150 367 -225 147 -269 261 -156 141 242 270 -180 -246 162 138 -254 0
-374 126 -242 100 144 261 -263 252 -269 141 150 270 -246 162 138 -254 0
-374 267 -242 259 156 -269 141 150 270 -246 250 162 249 138 -254 153 0
-374 -269 -156 -180 242 270 -246 250 267 162 249 138 -254 122 0
-125 -374 367 156 150 261 141 -269 144 -246 242 -260 162 126 138 -254 0
-374 126 207 -260 242 209 252 212 208 367 -137 162 -263 138 -254 211 0
-374 -252 168 156 242 144 258 367 270 -250 257 162 126 138 -254 153 0
-374 -155 -150 -232 -266 -140 243 -259 141 -168 -269 270 250 162 249 0
-374 126 250 243 -261 -226 -195 -221 -333 270 113 162 -382 0
-374 126 -146 -261 -336 -245 268 246 -242 -235 119 270 162 250 -194 0
-125 -374 -180 156 147 -246 367 -269 -225 150 261 242 -260 141 162 126 138 -254 0
-374 126 -260 -245 242 367 252 -141 -137 162 -263 138 -254 0
-252 -374 168 367 258 -147 141 270 -250 257 162 126 138 -254 153 0
-374 126 246 -125 371 261 -140 -243 119 144 156 -269 -242 -260 -52 162 138 -254 0
-374 -263 168 -144 16 -269 -242 -267 147 270 156 250 257 162 249 138 -172 211 0
-374 -263 156 -261 168 -259 -246 -242 270 250 162 249 138 0
-374 245 -242 -259 -146 115 371 156 246 -168 270 267 -257 249 138 0
-245 -374 156 147 269 261 -246 242 270 -372 162 249 138 -254 247 0
-374 -337 -269 144 -150 141 259 156 -246 -242 270 250 267 162 249 138 -254 0
-374 267 -269 -156 -242 270 -246 250 162 249 138 -254 122 0
-374 -242 270 249 138 -254 247 0
-374 -156 -233 270 -162 0
-374 -162 -233 -147 0
-155 -231 -186 -192 269 252 -263 -242 374 -372 249 138 0
252 248 -162 -263 -155 246 -144 -257 268 156 -259 0
261 162 -371 -374 269 156 246 -242 270 -372 -257 -147 249 138 -254 247 0
261 367 -246 -147 168 260 -270 372 162 159 138 -254 247 0
242 367 162 159 156 168 246 -259 -270 -372 -250 -257 -147 144 138 -254 247 0
-168 -242 371 162 246 -270 -372 -250 -257 -147 159 138 247 0
-372 121 -150 269 -147 0
-147 -168 -336 268 -371 -227 0
-144 -147 -371 -227 268 -336 0
261 -372 374 269 270 367 -147 162 249 138 -254 247 0
126 -252 141 258 367 -270 168 -250 257 -147 162 138 -254 122 0
-144 -147 121 -372 0
-147 -168 -372 -337 121 0
-168 -374 270 -147 -233 0
126 -374 -236 144 100 -263 -156 257 -242 -140 -261 -235 270 252 -147 -269 250 138 -181 0
250 257 144 168 -242 -374 -141 -261 156 270 -147 -269 162 249 138 122 0
250 257 144 168 -263 -242 -374 -141 -261 156 270 -147 258 162 249 138 122 0
-374 -232 -269 393 168 -140 252 243 -224 -147 -150 156 -155 -246 270 249 122 0
-374 126 243 -255 -147 -150 367 -140 242 -260 -137 264 205 -172 0
-219 -367 -150 -147 264 -331 0
-144 -367 -147 -219 264 -331 0
-156 -147 -219 -367 264 -331 0
252 -372 -192 -263 -186 -258 -147 374 -156 249 0
100 257 -263 243 -140 141 -269 252 -115 -147 -186 -260 374 -156 249 0
-234 -156 243 -140 -147 -386 -333 113 0
-144 -374 -233 -147 270 0
168 -372 162 249 138 -254 247 0
252 261 156 168 144 -259 -246 -242 -270 -372 267 162 159 138 -254 247 0
-242 261 147 -140 252 168 144 371 -263 246 -245 -270 -257 162 159 138 0
-374 375 270 100 252 269 250 121 -372 -263 74 0
252 257 156 141 -263 144 -261 -242 168 -374 -140 -269 270 258 250 162 249 138 -254 153 0
252 257 156 -259 141 -263 144 -261 -242 168 -374 -140 270 -269 250 162 249 138 -254 0
420 375 -263 252 100 269 250 -372 0
-374 368 -224 126 243 261 269 252 270 -372 257 162 -147 0
-375 121 252 393 141 147 257 168 156 -242 269 -270 -261 -372 250 162 159 138 122 0
252 257 270 243 393 244 269 -147 -374 -372 261 162 249 247 0
-235 -226 162 267 269 250 168 -372 121 -263 252 -261 0
121 -263 -242 -146 156 252 168 -268 -261 375 269 -235 -270 -372 250 162 138 0
121 -235 156 252 141 144 257 168 -261 -242 269 -270 367 -372 -266 250 162 159 138 -172 0
-127 -261 252 267 -263 168 -226 0
-374 -263 252 -155 -141 100 -259 -242 250 -261 -235 270 -144 126 138 0
-374 -263 252 -219 250 -367 270 -261 100 -202 126 264 -331 0
252 250 -219 -367 100 270 -261 -263 162 249 264 -331 0
-234 252 -263 -111 -386 100 -254 0
-250 -374 270 -202 -263 -269 -147 242 367 257 252 126 138 -254 153 0
-259 252 -242 -374 246 -263 156 -257 270 249 138 0
252 -242 -255 -263 144 -259 156 147 -374 -269 257 270 -162 249 138 -254 122 0
126 269 -263 -242 -372 -374 -255 270 -162 252 138 -172 0
126 -374 -242 -263 256 -255 156 147 -259 -269 257 270 -162 252 138 -172 122 0
-374 -382 -146 -242 -176 252 -263 144 -381 -125 270 168 126 -194 0
-374 252 -242 -140 -139 -263 -255 147 267 -243 270 168 126 138 -172 0
252 -246 -192 -256 -263 -115 270 249 0
-250 257 -242 -269 141 147 270 -202 168 252 374 249 138 153 0
252 257 -242 258 -374 -147 141 168 -250 270 -202 249 138 122 0
252 257 374 -242 -372 147 141 269 -250 168 270 -202 249 138 0
-250 257 243 267 245 39 -146 -242 -269 141 209 270 -202 -137 100 252 374 249 0
-225 -374 -269 252 393 243 -226 -125 256 141 -260 100 -158 74 122 0
-250 257 -269 -374 144 367 147 270 -202 168 252 141 249 138 -254 122 0
-250 -374 267 367 141 -269 242 144 147 270 -202 252 257 126 138 -254 -181 0
-374 -225 270 147 -202 367 252 242 -250 -263 126 138 -254 0
252 -226 -141 -246 267 -263 270 -150 249 0
252 -372 -186 -263 -192 -219 374 -367 269 121 249 264 -331 0
-141 -147 -257 -263 -372 252 246 -258 371 0
-370 257 374 -263 -186 -156 -192 -269 252 147 -141 100 -115 249 211 0
252 -257 113 -263 -374 100 -333 -140 -242 270 246 249 138 0
252 -250 -225 100 -263 147 -367 270 -202 374 249 264 -254 0
252 245 269 267 -225 -372 -263 242 -246 100 138 -254 247 0
-245 -244 252 -259 242 -381 -148 147 -176 -246 100 156 144 -263 138 -254 0
-385 -258 -121 -263 -246 -372 -144 -242 216 100 252 156 -382 138 -254 0
252 244 -225 -263 267 -246 -150 243 -140 168 -156 -270 -372 -226 159 211 0
-244 242 -263 -176 -246 144 -256 393 -147 252 -367 -259 100 -333 156 113 -219 138 -254 0
-232 124 -263 -137 126 -150 -242 144 258 -269 -147 156 100 243 -270 252 -250 -246 -202 153 0
-255 243 -257 252 100 246 -263 269 -140 247 0
-255 -263 -242 252 -140 243 -246 269 156 -259 -162 138 -254 247 0
-263 252 113 100 -259 156 -244 144 393 -111 -254 0
-263 367 252 242 -258 -246 138 -254 247 0
252 -263 242 -259 -147 100 -244 144 156 -246 -141 138 -254 0
-244 367 -255 -259 156 144 100 242 -263 -246 252 -140 138 -254 0
243 252 -257 -269 246 -115 141 144 -224 168 -140 -270 371 159 122 0
-226 252 -258 -263 -224 -372 269 147 -270 -367 216 100 257 159 138 -254 -181 0
252 242 243 -140 -137 -263 -246 -372 100 244 144 -270 141 367 159 138 -254 211 0
-224 252 -257 -140 243 -256 100 -255 246 -263 0
-176 377 168 252 -246 -263 -256 144 -258 244 247 0
-115 252 -246 242 -263 266 144 138 -254 0
252 244 -263 266 -246 242 144 100 138 -254 0
252 -385 -246 100 269 -232 -263 247 0
-263 367 252 -258 242 -372 -246 138 -254 0
-162 -263 -147 -372 246 -258 -257 252 0
-377 252 243 -156 -162 269 -182 -263 -255 247 0
-324 267 -150 144 -259 -141 156 -246 -242 270 -263 250 162 249 138 247 0
-324 267 144 -259 -150 141 156 -269 -246 -242 270 -263 250 162 249 138 -254 0
267 250 -269 -259 144 -150 141 -374 156 -246 -242 270 -263 -337 162 249 138 -254 0
267 250 -269 -259 144 -150 141 374 156 -246 -242 270 -263 -337 162 249 138 -254 0
-263 162 -121 261 144 168 374 -195 269 156 -242 270 -246 249 138 247 0
-263 250 -261 -192 -141 252 -242 270 -246 162 249 138 -254 0
375 252 250 121 -372 -263 100 -246 0
-242 -141 168 150 250 -261 267 -156 -246 -263 162 138 -254 0
-242 261 159 168 -259 156 144 246 -269 -270 250 267 -257 162 -263 138 -254 211 0
252 -242 -141 144 258 100 371 156 126 246 -261 -270 250 267 -257 162 -263 138 -254 153 0
-261 -242 159 141 252 -269 168 371 156 144 246 -256 -270 250 -257 162 -263 138 -254 153 0
252 -242 159 -269 141 371 100 156 246 -261 -270 250 -257 162 -263 138 -254 153 0
-236 375 252 242 250 -263 -202 -261 -246 100 138 -254 0
-263 162 168 -374 147 144 261 -269 -255 156 393 242 270 267 -246 249 138 -254 0
250 -242 100 156 150 -259 -263 -261 252 -246 162 138 -254 0
369 -141 162 -261 -263 168 144 -176 250 -375 -225 268 -242 -148 -371 -257 -194 0
261 156 -269 144 168 -242 -259 -246 -263 -270 267 162 159 138 -254 211 0
-263 -176 -256 213 144 168 -259 156 246 -141 267 -242 -257 162 264 138 211 0
213 -245 -263 156 -176 -141 -257 -256 144 246 -259 168 -242 162 264 138 211 0
-232 -250 162 -263 111 -259 246 168 156 -257 -367 138 -254 0
-263 269 -259 162 -231 -192 168 242 246 156 121 -250 -372 -257 138 -254 0
-242 250 -261 150 -263 -256 144 -176 -246 168 -202 138 -254 0
250 267 -243 147 -259 144 -150 141 156 -269 -246 -242 270 -263 374 162 249 138 -254 0
242 -232 -147 -150 159 144 -269 156 -259 168 -263 -246 -270 -250 162 367 138 -254 211 0
213 -381 156 -367 -259 267 -263 144 168 246 147 -257 162 371 138 -254 211 0
250 267 -269 -144 -192 -140 -150 259 141 -246 -242 270 -263 374 162 249 138 0
-263 -269 261 -192 243 374 144 259 -140 141 156 -150 -246 -242 270 267 162 249 -194 0
-263 374 270 -258 324 261 256 168 -195 156 -121 -242 -246 162 249 138 247 0
126 242 -263 258 -269 -147 144 168 156 -246 -270 -250 162 367 138 -254 153 0
250 375 -372 -263 -121 252 100 -258 0
-263 250 -147 156 168 -261 -242 -374 -141 270 -259 162 249 138 0
-248 168 159 -269 156 144 141 242 -246 367 -270 -250 162 -263 138 -254 211 0
-263 -141 -137 144 -269 252 374 147 270 100 -367 -250 257 162 249 264 -254 211 0
267 -242 250 144 257 168 -192 -176 -375 -146 252 -256 -270 -263 -269 162 -194 153 0
126 -245 168 -242 144 257 -374 252 147 270 -263 -269 162 250 -194 -181 0
-137 -263 147 -256 -192 -372 144 -141 -259 168 -242 156 267 269 123 257 162 138 -181 0
-374 -382 250 168 -261 252 -226 270 -263 162 126 0
-374 126 270 -243 -263 100 252 -140 250 -242 -261 -235 138 0
-127 113 -245 -263 -192 -195 168 367 147 242 -261 138 -254 0
126 -374 -261 270 147 -245 168 -242 -263 162 250 -194 0
-374 126 -235 -381 212 -176 250 -225 252 144 168 -261 267 -242 209 270 -263 162 -146 264 -194 205 211 0
-245 372 -263 147 -250 -367 -141 -167 162 264 -254 247 0
-374 126 -263 144 250 252 377 -235 -176 -261 -242 270 100 369 -194 0
126 -374 -269 100 242 252 156 -141 147 270 367 -250 257 162 -263 138 -254 211 0
372 -367 252 162 -263 209 213 208 212 207 168 138 -254 247 0
-235 -221 -263 369 243 144 377 -192 250 -242 -333 -176 -261 252 100 -194 0
-374 126 250 252 377 -155 -242 100 -385 -261 270 -263 -235 138 0
-263 -367 270 244 212 252 144 -176 209 369 100 207 162 249 138 -254 211 0
-374 -367 -176 141 144 156 -219 369 -263 261 168 270 -269 257 162 249 264 -331 0
213 369 -242 252 -263 -176 100 156 147 -245 -259 162 144 264 138 211 0
-248 267 168 147 -246 -263 374 156 270 -242 249 138 0
372 -367 144 147 -263 -244 -245 168 -141 162 -254 247 0
269 -263 252 -374 270 249 138 -254 247 0
-252 -263 147 249 138 -254 247 0
-263 147 249 138 -254 247 0
-176 -381 144 156 242 -263 111 123 -239 -141 -162 138 -254 0
367 -263 156 147 249 138 -254 247 0
-252 -263 156 147 249 138 -254 247 0
-242 -263 252 -269 257 16 156 -245 147 -270 -162 159 -185 138 -172 122 0
377 252 269 -263 267 -242 -245 147 156 -259 168 138 247 0
-377 -245 -372 -242 -263 168 267 147 156 269 123 138 0
-245 -182 -257 -367 -252 147 -263 269 210 -219 -259 415 168 156 264 -331 247 0
-245 121 -252 147 -263 168 -259 269 -182 -219 -167 -367 156 415 264 -331 247 0
-263 147 -248 -111 -269 252 -367 156 -245 -246 -270 -162 159 138 -254 211 0
252 -248 -245 415 -263 -219 147 -257 268 150 156 -367 -227 264 -331 0
-141 -245 -162 -263 -259 -242 -256 -176 147 257 252 156 138 -181 0
-263 252 -257 147 -162 367 -243 -156 -245 138 -254 0
-263 -245 -256 144 -176 -259 -162 -242 156 252 -246 147 138 0
-176 -256 252 -263 -242 -257 -245 -156 -149 147 -162 138 -172 0
-225 -263 156 242 168 141 -246 -144 367 147 -243 -259 138 -254 0
-111 -263 -269 -367 252 -257 144 150 141 147 -270 168 159 138 -254 153 0
-367 -263 -111 141 -269 257 -259 -252 156 -382 147 -270 168 159 -185 -136 -254 211 0
252 -382 -226 -140 -144 -242 -162 -263 156 -255 147 -259 138 0
-381 -226 -140 -242 147 -255 168 252 144 -263 -382 138 -254 0
-111 -263 -257 -269 -367 252 -243 144 150 -195 147 -270 168 159 138 -254 153 0
-176 267 -263 242 -256 -259 147 -257 367 -162 268 156 -252 138 -254 0
-242 -263 -259 269 252 -140 257 156 267 147 -270 -162 159 138 247 0
-367 -263 141 -259 -269 -257 -252 268 156 267 147 -270 -162 159 138 -254 211 0
-381 -263 -219 -259 -269 257 -252 -367 156 267 147 -270 -162 159 -185 138 -254 211 0
267 252 -257 147 367 -243 -162 -156 -263 138 -254 0
-242 -263 243 -269 -257 252 -156 267 147 -270 -162 159 138 -254 211 0
-225 267 -243 -263 141 -257 371 -367 246 -259 156 147 -219 168 264 -331 0
-374 -367 267 -259 121 269 -257 -252 -263 156 -225 147 -219 -162 264 -254 247 0
-244 -225 -377 -231 -263 123 -162 242 367 -141 156 147 267 138 -254 0
-381 -225 242 -219 -17 144 -141 -162 -263 -239 -176 147 138 -254 0
-141 -225 123 111 -263 242 156 -239 147 -162 138 -254 0
-225 267 -148 -371 -257 268 156 168 367 -243 -263 147 242 141 -259 138 -254 0
-252 -243 -162 -195 -263 267 242 367 156 -259 -246 147 138 -254 0
-263 147 -252 259 242 141 258 367 156 -243 -246 -270 -162 159 138 -254 153 0
-374 -367 -225 -195 -226 -259 -252 156 -243 147 -263 -162 264 -254 0
-263 -243 -162 267 -256 -176 147 252 257 367 -156 138 -254 -181 0
367 -263 -269 -257 258 156 -255 147 -270 -162 249 138 -254 153 0
-242 -263 -259 -219 141 -140 -269 -257 268 156 -255 147 -270 -162 159 138 -254 153 0
-232 -263 168 252 -242 147 -255 246 267 -140 156 -257 -259 -195 138 0
-263 147 -259 242 -252 -195 -269 367 156 -255 -246 -270 -162 159 138 -254 153 0
-252 -255 -162 242 -195 -263 267 367 156 -259 -246 147 138 -254 0
252 -263 156 168 -259 -195 267 -140 246 -148 -242 147 -255 268 -257 138 0
-263 147 -259 242 252 -195 -269 367 156 -255 -246 -270 -162 159 138 -254 153 0
367 -263 242 -259 268 -269 -257 141 156 -255 147 -270 -162 159 138 -254 153 0
-263 147 259 242 -252 141 258 367 156 -255 -246 -270 -162 159 138 -254 153 0
367 -263 242 -252 259 268 258 -257 141 156 -255 147 -270 -162 159 138 -254 153 0
-367 -263 144 113 259 -176 -225 258 -257 -252 -137 268 156 -255 147 -270 -162 159 264 -254 153 0
-263 147 259 252 -219 -140 -195 258 -242 156 -255 -246 -270 -162 159 138 -254 153 0
267 252 147 243 -257 -162 -263 -242 -255 -156 138 -172 0
-263 147 252 259 242 113 -195 258 -180 367 156 -333 -246 -270 -162 159 138 -254 153 0
-372 -263 -252 269 242 257 -259 156 367 147 -270 -162 159 138 -254 122 0
-252 367 -162 -263 -231 -259 -372 -258 242 156 -245 -246 147 138 -254 0
-269 -263 -257 156 367 147 -270 -162 249 138 -254 122 0
269 -263 242 -372 -252 -257 156 367 147 -270 -162 159 138 -254 122 0
-263 147 -252 242 269 -372 156 367 -246 -270 -162 159 138 -254 122 0
-269 -263 242 -252 257 156 367 147 -270 -162 159 -185 138 -254 122 0
-372 -263 242 -252 257 156 367 147 -270 -162 159 -185 138 -254 122 0
-269 -263 242 252 257 156 367 147 -270 -162 159 -185 138 -254 122 0
258 -263 -269 -257 252 -367 156 -219 147 -270 -162 126 138 -254 153 0
-242 -263 -259 -252 -257 269 156 16 147 249 138 -254 247 0
-269 -263 367 -243 -147 -270 -162 126 138 -254 122 0
-263 147 -269 -257 -259 -252 156 -367 268 -270 -162 159 138 -254 153 0
-269 -263 -252 -257 156 -367 147 260 -270 -162 159 138 -254 122 0
-269 -263 -252 257 156 -367 147 -270 -162 159 -185 138 -254 122 0
-374 -255 -219 144 -252 -256 141 115 -176 268 -257 -225 113 -367 147 -263 -162 264 -254 0
-176 -393 367 -195 242 -250 -263 -256 144 -137 168 138 -254 0
-263 147 -259 -269 252 -367 156 -111 -246 -270 -162 159 138 -254 153 0
156 144 -111 -367 -155 -243 -263 -269 -195 150 -270 168 126 138 -254 122 0
-176 -242 156 -255 144 -256 -259 371 -261 246 -168 -270 250 267 -257 162 138 -254 211 0
-263 -225 242 -256 -257 168 144 367 -156 246 147 -141 138 -254 0
-374 -252 -176 126 -261 -242 168 -246 144 270 162 -256 -194 0
375 -261 144 -252 168 -259 156 250 -242 -256 -147 162 138 0
-369 250 -147 -261 270 -256 162 249 0
257 126 141 168 -219 267 147 144 -263 -270 -269 -367 -256 250 162 -381 138 -254 211 0
257 -375 250 168 252 -269 -270 -256 -369 -202 153 0
-147 375 -242 162 -259 250 -168 -255 -140 -261 -256 -369 138 0
-377 -137 -256 144 267 162 -263 -141 -372 269 -242 0
250 257 -261 270 -256 -369 162 249 -181 0
250 257 -155 -369 252 156 168 -261 270 -269 -256 162 249 0
-256 261 367 -259 -168 -270 -147 372 257 159 138 -254 247 0
-176 -252 258 -256 -255 367 147 -270 168 -250 257 162 159 138 -254 122 0
-256 -259 -242 -141 156 -257 270 -162 249 138 -254 0
-256 168 -252 -259 144 -242 156 270 -246 249 138 0
-256 168 -374 259 244 -269 29 150 208 -242 156 147 270 -246 249 138 -254 153 0
-256 126 -374 -121 -150 144 141 -242 156 147 270 -246 -162 138 -254 122 0
-256 -162 374 259 -269 -150 144 141 -242 156 147 270 -246 249 138 -254 122 0
-252 -367 162 144 -167 -137 147 -256 -261 -245 205 -254 0
-150 -256 374 -259 -246 144 393 -242 156 147 -372 270 249 138 -254 247 0
-256 168 374 -263 267 144 -242 147 270 -246 249 -194 0
-256 -246 -242 150 144 -259 156 270 249 138 -254 0
-256 -115 -150 374 267 -263 -192 -140 -195 -246 -242 270 -243 249 138 0
-256 -252 -386 168 144 -242 156 -259 -147 270 249 138 0
-256 -140 144 156 -243 -386 -242 -259 -147 270 249 138 -254 0
-263 267 -176 371 -242 168 -256 -141 246 144 -156 -257 -194 0
372 -252 -147 -256 156 144 -242 168 -259 138 247 0
-256 -368 -255 243 -259 -150 144 -140 -242 156 270 -162 249 138 0
126 -374 -140 -256 -259 -125 144 -269 -242 156 147 270 -246 168 138 -254 122 0
-256 -246 -242 -155 -232 144 -259 -374 150 270 249 138 -254 0
126 -256 -374 246 -224 -257 -260 -162 -141 0
123 377 -242 -137 141 -140 144 -259 156 168 -256 261 269 -270 -372 257 159 138 -181 0
-115 -242 267 -259 208 147 156 374 -256 270 249 138 0
-115 -256 -155 -373 208 244 -259 -260 249 0
-256 168 -269 259 150 144 208 -242 156 147 270 -246 249 138 -254 153 0
-256 -115 -259 147 208 156 267 -242 -260 -246 249 138 0
-256 168 -263 -243 144 -195 -242 270 -246 249 138 -254 0
-141 267 367 -256 -176 242 -257 147 -162 -252 -263 138 -254 0
-245 -256 -381 -141 144 -242 -259 156 -150 -260 249 138 0
-374 126 -221 -242 -232 -333 144 -385 123 243 -246 270 -256 -194 0
-256 -242 -176 -219 -259 243 141 268 -269 -257 267 156 -263 147 -270 -162 159 138 -254 211 0
-162 267 -242 -150 -259 -252 156 147 -256 138 0
-252 -141 -256 -259 367 257 242 -162 267 -176 147 156 -263 138 -254 -181 0
-256 -252 144 242 -259 -245 367 156 147 -162 138 -254 0
267 -263 -256 -176 242 -162 -259 367 156 -252 -246 147 138 -254 0
367 371 168 -255 246 -176 -256 243 -257 144 141 -252 138 -254 0
-252 -176 -162 257 367 -156 267 -255 -256 147 -263 138 -254 -181 0
-256 -252 141 -243 168 267 -263 367 147 144 138 -254 0
-263 267 -162 -256 -242 144 -176 252 156 -259 -246 147 138 -254 0
-263 267 -162 -219 -242 252 -256 -176 156 -259 -246 147 138 -254 0
-242 -252 -141 -256 -246 168 156 267 144 -259 138 -254 0
-263 252 16 -242 147 -243 257 -256 267 -156 -176 -162 138 -254 -181 0
-381 267 -243 144 -150 -176 -259 -256 -225 -367 156 147 -162 264 -254 0
-115 -256 -257 147 367 -243 -156 -245 -162 138 -254 0
-256 -243 246 144 147 -257 371 141 267 -242 138 -254 0
-176 -256 -162 367 267 -255 -257 268 -156 147 138 -254 0
267 -256 -162 -224 245 -258 324 -182 -156 257 247 0
-202 -255 144 -256 367 -246 147 -250 -245 242 141 -137 264 205 -172 0
-245 242 -176 -259 144 147 -250 156 -246 -202 367 -256 138 -254 0
248 -224 -256 -155 -263 -259 252 268 -257 156 -162 -141 0
-232 -385 245 267 -256 -250 -224 -146 0
-369 -256 -258 -372 257 -181 0
-256 -176 -162 -243 -242 367 -257 -147 -259 138 -254 0
-176 367 -259 -246 -195 242 -243 144 -256 156 150 138 -254 0
-369 -258 -372 -256 -246 0
-256 -263 144 -257 168 -243 -195 246 371 -242 138 -254 0
-256 -243 367 144 -259 141 156 372 138 -254 247 0
267 -232 246 -146 -336 245 -372 -52 268 -242 46 210 -385 121 144 -250 -256 -227 269 -176 -194 0
-256 -263 -372 -176 -246 -259 367 243 -147 -270 -162 159 138 -254 211 0
-167 -162 -150 374 256 -259 -269 144 393 141 -242 156 147 270 -246 249 138 122 0
-141 126 -374 246 267 -263 -242 147 -257 -260 -162 -167 -194 0
-372 367 141 252 -263 -202 -270 -258 -147 -250 100 257 -167 159 138 -254 122 0
-234 -252 156 -386 -246 -167 -367 -259 150 -219 264 -331 0
-167 257 156 372 269 -245 -111 -252 147 -270 -162 159 -254 247 0
-374 -252 -191 144 -167 -233 -244 -219 -367 270 264 -331 0
-191 -374 -252 -367 150 -233 -246 -167 -219 270 264 -331 0
-191 269 121 -372 -367 -252 -219 264 -331 0
-242 250 270 -372 -246 -257 162 249 138 -254 247 0
-269 -242 156 246 -374 270 250 267 -257 162 249 138 -254 122 0
250 267 -270 -372 -246 -242 162 126 138 -254 247 0
250 -261 -372 267 246 269 -242 371 -156 -257 162 -194 122 0
-371 -375 -144 -242 156 -261 246 -225 -270 -372 250 -257 162 159 138 -172 122 0
-261 -225 371 -156 -242 -393 246 144 -270 -372 250 -257 162 159 138 -172 122 0
267 375 269 259 144 168 156 -246 250 -270 -372 -150 -242 162 159 138 -254 0
267 375 144 250 -261 156 -246 -168 -270 -372 -150 -242 162 159 138 -254 247 0
-225 375 159 -269 -227 141 168 156 -242 -261 246 -371 -270 250 -257 147 162 138 -172 122 0
-371 375 162 -269 -259 -227 168 -140 156 -242 -261 246 -225 -270 250 -257 147 138 122 0
-261 375 -243 168 -269 141 144 -156 -242 246 256 -270 250 -257 162 159 138 -172 153 0
-242 -261 371 156 126 246 168 -270 250 267 -257 162 -269 138 -254 122 0
-371 -225 -259 -269 -242 -141 144 -375 156 -232 -261 246 168 -270 250 -257 162 159 138 153 0
-242 261 -269 246 156 -270 250 267 -257 162 159 138 -254 153 0
126 -371 -242 156 -261 246 144 -270 250 267 -257 162 -269 138 -254 122 0
-242 -371 -269 141 -259 168 156 -261 246 144 -270 250 -257 162 159 138 -254 122 0
267 -261 -243 250 -156 -246 -269 -270 -150 -242 162 159 138 -254 153 0
267 -261 250 -156 -246 -269 -270 -150 -242 162 159 138 -254 122 0
-407 -371 -242 141 168 147 -140 -375 156 -261 246 -269 -270 250 -257 162 159 138 122 0
-119 375 -141 -245 -242 -144 -235 156 -269 -270 250 -257 162 159 138 153 0
-371 -375 141 -242 144 -140 -156 -225 -261 246 -269 -270 250 -257 162 159 138 122 0
-245 375 168 243 -242 147 141 -140 144 -371 -261 246 -269 -270 250 -257 162 159 -194 153 0
-168 267 250 -375 144 -261 156 -246 -269 -270 -150 -242 162 126 138 -254 122 0
374 -242 119 -269 156 246 -147 270 250 -257 162 249 138 -254 122 0
267 -261 150 -269 250 -156 -270 -246 -242 162 159 138 -254 122 0
-242 261 -269 -259 156 144 246 -168 -270 250 267 -257 162 159 138 -254 211 0
-242 -261 371 -269 156 246 -168 -270 250 267 -257 162 159 138 -254 122 0
-225 -261 258 -269 371 156 144 -242 246 -168 -270 250 -257 162 159 138 -254 153 0
-242 16 159 246 -261 -270 372 250 267 -257 147 162 138 -172 247 0
-242 162 -147 16 156 168 270 -372 -250 -246 249 138 -254 247 0
250 267 393 374 -259 -144 207 156 -263 -246 258 270 -150 -242 162 249 138 122 0
-374 372 270 -246 -242 -168 -250 267 -202 126 138 -254 247 0
257 126 147 -270 367 -269 -242 162 250 138 -254 122 0
261 -267 269 374 -242 147 270 16 -372 162 249 138 -254 247 0
250 257 269 -270 -372 367 -242 162 159 138 -254 122 0
126 -375 252 -144 257 16 168 -269 -270 147 258 -242 162 250 138 -172 153 0
250 257 -245 141 144 156 -374 -140 147 270 -269 -242 162 249 138 122 0
126 -263 168 -156 -144 257 -245 -374 -140 147 270 -269 -242 162 250 138 0
-242 250 -261 -259 156 -140 125 -79 -243 270 -386 162 249 138 0
-242 250 -259 -231 156 -245 -144 -261 -255 147 270 16 -386 -202 249 138 -172 0
261 -242 -245 16 374 269 144 270 147 -372 162 249 138 -254 247 0
-242 257 267 -144 269 147 16 270 374 -372 261 249 138 -172 247 0
250 257 -245 144 141 156 -140 -269 147 270 -386 -242 162 249 138 153 0
250 257 -245 -154 144 -156 141 -140 -269 147 270 -386 -242 162 249 138 0
250 257 267 -243 156 -226 144 39 -140 258 147 -261 270 374 -242 162 249 138 -254 153 0
-242 374 258 -147 270 168 -250 257 162 249 138 -254 153 0
-242 257 -386 144 168 -195 -252 393 269 -147 270 -372 261 162 249 138 247 0
-252 375 -121 141 -242 156 250 168 -270 367 -372 -258 257 162 159 138 -172 122 0
375 -255 144 -261 -195 257 -252 162 250 -256 -137 168 -242 -140 138 -181 0
372 257 270 -141 -242 250 162 249 138 247 0
-242 257 269 -270 16 -372 261 162 159 138 -254 122 0
257 121 -140 141 -252 147 -242 -137 168 269 -270 -372 261 159 138 0
250 257 -374 269 -147 270 -372 16 -242 162 249 138 -172 247 0
261 372 168 144 -245 -270 147 -242 257 162 159 -194 247 0
372 -245 141 -140 168 261 -270 147 -242 257 159 138 247 0
-374 126 -242 270 168 -252 -226 -261 250 162 -225 -194 0
-242 261 -144 147 168 -270 16 372 257 162 159 138 -172 247 0
250 257 168 270 372 -141 -242 162 249 138 247 0
261 372 -147 270 -141 168 -242 257 162 249 138 247 0
-242 261 -141 144 168 -270 -147 372 257 162 159 138 247 0
250 257 168 267 144 -261 -256 -252 270 147 -242 162 249 -194 -181 0
375 252 -256 257 -176 156 100 144 250 -141 272 -245 -261 -259 -242 162 138 -181 0
-168 -242 156 147 -144 -270 -250 372 257 -202 159 138 247 0
267 -261 168 250 156 -270 -372 -246 -242 162 126 138 -254 122 0
-242 162 -147 150 261 269 168 156 270 -372 -246 249 138 -254 247 0
-242 162 -140 261 168 156 -147 144 270 372 -246 249 138 -254 247 0
-242 270 249 138 -254 247 0
126 147 -255 -263 -156 -242 -374 -125 257 270 -162 -269 138 -254 122 0
-385 -140 -263 -192 -242 113 -195 377 156 -125 -260 168 138 0
-372 -242 -374 257 270 -162 249 138 -254 122 0
126 269 -242 255 147 -372 -263 -374 257 270 -162 144 -194 -181 0
126 -374 -140 -255 147 -372 263 -242 257 270 168 -266 138 0
-259 -242 -147 156 -372 374 -263 257 270 -162 249 138 -254 122 0
-242 272 -243 374 -140 -195 -186 -259 168 156 -192 249 138 0
-242 -162 -374 -269 -147 270 -246 249 138 -254 122 0
126 -374 -263 -242 -269 -147 270 -246 -162 138 -254 0
-252 -242 -259 -141 144 156 147 -374 -269 257 270 -162 249 138 211 0
-242 168 -263 255 144 156 147 -374 -269 257 270 -259 249 138 -254 122 0
257 -242 168 16 -374 -269 141 147 270 -202 144 -250 252 249 138 -172 122 0
-250 252 168 16 -374 -269 141 147 270 -202 -144 257 -242 249 138 -172 153 0
-139 -242 -255 -263 -125 -195 156 147 -374 -269 257 270 168 126 138 -172 211 0
255 -242 -263 -156 374 -269 257 270 -162 249 -194 122 0
-239 74 -125 -255 -263 -147 -374 258 257 -260 -162 -242 -158 138 -254 122 0
257 -242 168 156 258 -192 270 -202 144 -250 374 249 138 153 0
-242 -250 -255 144 -121 156 -263 374 -372 257 270 -195 168 249 138 -254 122 0
-252 -242 269 147 267 374 -372 270 168 249 -194 0
-266 -242 144 -255 147 -263 156 259 374 -372 257 270 -162 249 138 -172 153 0
-259 -242 -144 -252 147 156 255 -386 -372 257 270 -162 249 138 122 0
-252 -242 144 156 147 -372 -374 -255 257 270 -162 249 138 -172 122 0
-252 -250 -259 -140 243 144 156 147 -372 -374 -255 257 270 -242 168 249 138 211 0
126 -156 105 -263 267 -125 147 -374 -255 270 -162 -242 138 -172 0
126 -374 243 -139 -259 -242 -245 -263 156 147 252 -255 270 -221 100 138 -172 0
-160 -242 -245 -140 -259 147 156 -386 -255 270 -162 249 138 0
-259 -242 -245 -142 -144 -140 147 156 -255 270 249 138 0
-252 -242 144 156 147 -372 -374 -141 257 270 -162 249 138 122 0
-158 74 263 156 147 -372 -374 -141 257 -260 -162 144 -242 138 122 0
-252 -242 -266 -259 147 156 -372 -386 -141 257 270 -162 249 138 122 0
-234 74 -256 -259 144 156 -386 -141 -260 -162 -252 -158 -242 138 0
-259 -242 -269 144 147 263 156 374 -141 257 270 -162 249 138 -254 122 0
-259 -242 144 147 263 156 -372 374 -141 257 270 -162 249 138 -254 122 0
257 -242 -141 147 270 -202 168 -250 258 249 138 122 0
-374 126 -242 -221 243 -259 267 118 -195 -381 -226 156 -255 144 270 -176 138 0
-252 -242 -259 141 -121 144 -147 156 -372 -386 255 257 270 168 249 138 122 0
252 -248 -263 168 267 147 -242 -372 -257 156 269 246 123 138 247 0
-410 -252 -372 156 267 269 123 168 -242 147 138 0
-252 257 16 -259 -242 269 156 147 -270 -162 159 138 -172 247 0
-242 147 252 -259 269 367 156 -263 -246 249 138 -254 247 0
252 -141 -231 156 -258 -182 -242 267 245 -263 147 -162 138 247 0
-252 257 16 -242 -269 156 147 -270 -162 159 -185 138 -172 122 0
-252 147 -255 -259 268 -140 -195 -269 -242 156 -257 -270 -162 159 138 -254 153 0
-382 267 -258 168 123 156 377 -121 -242 147 -167 -192 138 0
369 -176 147 -195 -226 -263 252 -259 39 168 144 267 -242 -140 -255 156 138 -254 0
-141 267 -162 -242 156 -176 -259 -177 252 39 -226 369 147 -263 138 0
-141 370 -162 369 -242 -176 -226 -259 252 -177 156 322 147 -263 138 0
255 -242 144 141 -252 -259 246 269 -257 156 -263 147 -270 -250 168 159 138 247 0
-257 147 267 -242 -259 243 141 -256 -269 -252 156 268 -270 -162 159 138 -254 211 0
-252 257 16 -259 267 -269 -176 -242 370 -256 156 147 -270 -162 159 -185 138 -172 211 0
-141 370 -263 -162 -242 -258 -182 252 -231 156 245 147 322 138 247 0
-176 267 -162 144 252 -243 -140 -242 -256 -263 -246 147 138 -254 0
-171 -252 -167 147 -245 -242 0
-252 -242 147 -245 -167 -194 0
267 269 -156 -146 -162 246 -252 -257 -242 39 -226 -194 247 0
-370 -252 267 -146 39 269 168 -242 -372 -194 0
-269 -242 252 257 16 156 -263 147 -270 -162 159 -185 138 -254 122 0
-231 -263 -195 -246 -140 252 -243 269 -219 156 -242 -162 138 -254 247 0
-146 -242 -395 -194 0
-242 147 -269 252 -259 -140 -255 144 -195 150 -219 156 -263 -246 -270 -250 168 159 138 -254 153 0
377 147 243 -176 -258 -242 252 -156 257 -263 -270 -162 159 -194 247 0
-242 269 243 257 252 -156 -263 147 -270 -162 159 -194 247 0
-242 257 -156 374 263 -269 270 -162 249 138 -254 122 0
-242 -252 16 259 -257 269 156 147 249 138 -254 247 0
377 -141 -242 -176 -263 267 -256 -258 257 147 252 -162 -194 247 0
-141 267 -162 -259 -242 268 -257 156 147 -252 138 -254 0
-141 -242 269 252 -259 257 156 -263 147 -270 -162 159 138 247 0
-242 263 -269 268 -257 367 156 -243 147 -270 -162 159 138 -254 153 0
-245 377 269 147 -372 -242 -263 -140 252 -255 100 138 0
-255 -250 141 272 100 -192 252 -259 156 -202 -242 138 0
-242 -243 -140 246 141 245 46 210 144 267 269 268 -257 156 147 249 138 -254 247 0
-141 -242 245 150 144 267 269 -257 -219 156 147 249 138 -254 247 0
-256 267 -242 144 156 150 -141 268 -259 -257 -219 147 -176 -162 138 -254 0
-242 267 -256 -243 -150 144 -269 -259 16 156 252 147 -270 -162 159 138 -254 153 0
-176 -243 -372 -242 -256 267 -259 269 257 16 147 156 -162 138 -254 122 0
-243 -140 -242 147 -245 138 0
-243 -140 -242 147 -118 -194 0
-398 -155 -242 138 0
-124 -242 156 -245 147 138 0
-248 -242 156 -245 147 138 0
-381 -250 -202 -242 144 156 -140 243 -259 -255 138 0
-381 -176 144 -225 -121 -242 -258 156 123 147 138 0
-182 -250 -245 156 -242 -176 -259 144 372 -256 147 138 247 0
-381 -385 156 -242 144 147 -245 138 0
-250 -176 -256 -246 150 269 -259 267 144 -242 -231 245 -219 -146 156 138 -254 247 0
-144 -162 -255 268 -259 147 -242 -257 156 243 -245 138 -172 0
-242 263 -219 -269 -255 -257 268 156 243 147 -270 -162 159 138 -254 153 0
267 -259 -242 -162 -146 209 245 -255 243 -219 156 -246 -144 138 -254 0
-243 -245 -144 -242 -246 -195 138 -254 0
-225 -252 -257 -242 168 -141 371 246 -156 -194 0
-224 -242 267 -232 245 -150 144 39 269 -243 156 147 249 138 -254 247 0
269 -372 -242 150 -195 -236 156 -387 263 -270 259 -246 138 -254 0
-381 -176 -245 -255 243 147 -242 -256 269 144 -194 247 0
-250 -226 -382 -202 -137 -257 246 168 -242 -263 -227 0
372 -242 267 246 -250 -202 -270 -257 159 138 247 0
-418 -225 150 -246 -242 138 -254 0
-256 -245 -257 -263 144 371 168 246 147 -242 -194 0
39 269 -246 -372 -146 -256 -242 243 -226 -156 263 -270 -162 159 138 -254 0
-252 -245 156 -259 -141 -242 168 -256 144 246 -257 138 0
-242 -243 258 -269 -263 16 246 -147 -270 -162 159 -185 138 -254 153 0
-226 -176 -162 246 -140 -243 -256 -242 267 -257 147 -156 138 -254 0
252 -248 -263 -257 246 -155 -372 269 -242 138 0
-377 -263 -333 -140 -242 113 267 168 -146 269 252 -372 138 0
-242 123 -372 -140 -246 252 121 269 243 -259 -263 -192 100 -255 138 -254 0
-242 372 -255 -147 -259 156 -140 270 -246 249 138 -254 247 0
-255 -263 -385 -246 -232 -144 -242 252 -195 100 267 138 -254 0
-375 -242 -269 -150 -385 -144 252 168 -261 156 -245 -246 -270 250 162 138 -254 122 0
-244 -242 144 150 -246 138 -254 0
-407 115 -242 144 156 246 269 371 -248 -257 138 247 0
-263 269 -167 252 377 -256 -372 144 100 -259 156 257 123 -192 -242 138 -181 0
-221 -381 -146 -242 121 243 144 -245 -372 269 -333 -194 0
65 -232 46 210 243 -155 -259 -245 -242 -146 246 269 -255 -257 64 -194 247 0
-372 -368 269 -242 243 -246 -140 -255 150 138 -254 0
377 252 144 -263 269 -256 -259 -242 156 257 168 138 247 0
377 252 -255 -263 -195 -140 269 -259 -256 -242 156 257 -162 138 247 0
-256 141 -263 -176 144 -242 168 156 -259 -243 -257 246 138 -254 0
-242 -162 -259 -246 -263 -219 -147 -256 138 -254 0
-242 -256 -246 156 144 -195 -255 168 -259 -252 -140 138 0
-381 -263 -176 -372 168 269 371 -257 246 144 -242 -194 0
-263 -140 -242 -243 -258 -182 -147 -385 -162 138 247 0
14 367 319 -136 0
250 267 260 -270 372 -246 367 162 159 138 -254 247 0
-372 250 270 367 162 249 138 -254 247 0
250 -372 367 162 249 138 -254 247 0
258 367 -141 147 270 168 -250 257 162 249 138 -254 122 0
250 257 270 -147 367 -269 162 249 138 -254 122 0
250 257 -270 367 -269 162 249 138 -254 122 0
257 126 147 -270 367 -269 162 250 138 -254 122 0
257 126 -242 168 -270 147 367 -269 162 250 264 138 -172 122 0
-372 126 -270 -250 168 257 162 367 138 -254 122 0
126 -168 -270 -250 367 -372 162 257 138 -254 122 0
257 147 -121 261 269 242 -270 367 -372 162 159 138 -254 247 0
261 147 168 257 242 269 121 -270 367 -372 162 159 138 -254 122 0
257 -147 168 -121 261 269 242 -270 367 -372 162 159 138 -254 122 0
372 257 -270 147 367 250 162 159 138 -254 247 0
-372 250 -147 270 367 162 249 138 -254 247 0
257 -168 242 147 367 269 270 261 -372 -245 249 138 -254 247 0
-235 121 159 156 141 -263 242 -236 144 269 -270 168 -372 -261 257 162 367 138 -254 -181 0
269 -236 159 -270 168 -372 242 257 162 367 138 -254 247 0
-261 121 159 212 208 -195 207 147 -236 242 -243 269 -270 168 -372 -235 257 162 367 138 -254 211 0
261 156 367 -259 141 168 -270 372 257 159 138 -254 247 0
367 258 168 -374 156 141 147 270 144 -250 257 162 249 138 -254 122 0
-147 -168 242 123 367 -259 -244 -243 138 -254 0
126 147 -250 -270 367 258 257 162 -168 138 -254 122 0
250 257 -374 -242 141 -125 168 270 156 367 -269 162 249 138 -172 153 0
250 257 144 168 141 -252 -374 242 -261 270 156 367 -269 162 249 138 -254 -181 0
258 367 -115 147 -154 270 144 141 -250 257 162 249 138 -254 153 0
367 162 -147 168 156 144 270 -372 -250 -246 249 138 -254 247 0
250 257 -243 168 141 242 -374 144 -261 156 270 258 367 -269 162 249 138 -254 153 0
-166 257 144 -115 147 258 270 367 -250 -168 162 249 138 -254 153 0
-166 367 -168 147 258 270 144 -250 257 162 249 138 -254 122 0
126 243 -147 -250 -270 367 258 257 -202 -168 138 -254 122 0
-243 -225 -180 -246 -259 -168 147 150 156 367 267 242 138 -254 0
126 -374 -269 144 242 168 -147 156 -246 270 -250 162 367 138 -254 122 0
-269 126 -147 168 156 -246 -270 -250 162 367 138 -254 122 0
-168 -269 -150 -232 -155 -266 -140 141 367 -259 -246 243 270 250 162 249 138 -254 0
-14 -225 -246 367 147 -243 -168 156 -248 242 205 -254 0
367 147 144 -245 242 -176 -258 -243 -180 150 156 -246 249 138 -254 247 0
-243 -250 -259 367 147 -231 -202 141 156 -225 242 138 -254 0
367 263 -269 268 -257 144 156 -243 147 -270 -162 159 138 -254 153 0
-176 -250 141 147 242 -259 -245 -243 144 156 -256 367 138 -254 0
242 141 156 147 -257 -202 367 246 -269 -270 -250 -225 144 159 138 -254 122 0
-244 -255 156 242 267 367 269 -162 -259 144 147 138 -254 247 0
261 123 374 -243 -245 -219 147 -269 -186 -150 -246 156 242 162 249 138 -254 153 0
-168 -367 -150 -219 264 -331 0
-370 250 -367 -261 -375 -235 267 -260 -219 162 249 264 205 -331 0
-367 250 -219 -141 -256 168 147 -261 -259 -263 -245 162 138 -254 0
-147 -168 -219 -367 264 0
250 252 -367 375 -219 100 -263 -227 268 -336 -371 264 -331 0
-144 -162 -219 -367 264 -331 0
-141 -147 -219 -367 264 -331 0
-374 -124 -367 -219 -245 147 -233 156 270 264 -331 0
-234 -375 -261 -219 -386 -259 -367 123 -235 -202 248 264 -331 0
-162 -367 -147 -219 264 -331 0
374 168 -367 -195 -252 -225 -243 147 270 -219 249 264 -331 0
-177 -374 -233 -219 -245 -367 270 264 -331 0
-185 -374 -225 -219 -233 -367 270 -370 264 -331 0
-160 -367 -162 -219 264 -331 0
-185 -374 -367 -373 -410 270 -219 264 -331 0
-234 -367 -219 -252 -259 -386 -246 -162 156 264 -331 0
-219 -367 147 -232 168 267 144 369 -263 -192 -259 -374 270 -246 249 264 -331 0
-252 -374 121 269 -257 -259 -367 156 -219 -162 264 -331 247 0
-245 269 -367 -372 -252 -219 147 121 168 264 -331 0
-374 -252 -367 -226 268 -257 -219 -248 156 -407 -162 264 -331 0
-225 -182 -204 156 121 -367 245 415 -385 -252 -219 269 264 -331 247 0
126 -374 243 -250 -221 -333 147 -225 270 -202 -367 -219 264 -331 0
-141 121 -219 242 -162 138 -254 247 0
-245 269 121 147 156 -367 -372 -219 -248 264 -331 0
-144 156 -259 -255 -146 -242 -337 324 -258 243 -257 -219 245 209 249 138 -254 247 0
-187 -250 -219 269 -372 121 -367 264 -331 0
-245 121 -219 -372 -132 168 -367 147 264 -331 0
-171 -137 -367 374 -269 156 147 -263 267 257 270 -162 249 138 -254 122 0
126 -119 -266 258 -155 156 242 144 141 246 367 -270 -140 -235 -387 -257 162 -137 138 -254 153 0
242 252 -137 -266 269 -258 367 147 -270 168 -141 -372 257 162 159 138 -254 0
-252 -137 150 261 168 141 -111 -269 -367 -386 144 -246 270 162 249 -254 0
-202 -137 269 -242 246 -250 -372 270 -257 249 0
-137 168 -140 374 256 -258 259 321 144 -121 141 -242 156 147 -372 270 -246 249 138 0
-250 -374 -141 -367 270 -202 -137 258 168 257 249 264 -254 122 0
-252 -137 -269 -367 374 156 147 267 257 270 -162 249 138 -254 122 0
-374 -185 100 -176 144 -17 -219 244 369 -263 252 242 270 -137 -239 264 205 -331 0
-250 -147 -156 243 -242 168 -137 -270 -372 371 -202 -257 246 159 247 0
-137 263 -257 268 113 -243 -269 -255 -367 156 -225 147 -270 -162 159 264 -254 153 0
-137 263 -257 -255 -269 113 -367 156 -225 147 260 -270 -162 159 264 -254 153 0
-381 -176 -202 -372 367 269 141 -258 -250 -255 243 -137 144 264 205 -172 0
-115 156 -140 257 -256 258 242 367 -263 -155 -243 -137 -270 168 126 138 -254 153 0
-410 -232 121 242 -137 100 -372 -263 252 -192 156 -259 -246 269 138 -254 0
65 -232 -155 64 -242 -195 -252 -140 -137 -167 -257 371 -259 246 243 -255 0
399 -261 -375 -246 243 -255 150 -386 367 -140 -202 -368 138 -254 0
-261 -375 -368 -140 243 -147 -150 -255 -202 0
-368 -374 -255 -147 -150 -140 243 -260 126 0
-168 -255 267 243 -368 -140 -370 -144 -242 -246 138 -254 0
-147 -255 -168 243 242 -261 -140 -368 -236 -202 264 138 0
-147 -255 -202 -261 -168 -368 -140 243 -375 0
126 -374 243 -242 150 -368 -255 -140 270 -246 138 -254 0
-368 113 162 141 -176 -367 267 156 -381 -225 -259 147 144 243 -250 -333 264 -254 0
-371 -227 243 -155 252 -257 375 -140 -269 -248 168 -261 246 -242 -270 250 -368 -202 138 122 0
-373 -368 -371 -255 243 -261 250 -140 -259 -231 246 -257 -227 -202 0
-368 -371 -140 -255 -244 -148 268 243 144 -242 -257 270 249 -194 0
-368 -255 -245 -202 243 -150 -140 270 -168 -261 159 264 -194 205 0
-185 -374 -219 -333 -221 -367 270 -368 264 -331 0
126 -374 243 -140 -370 -255 118 -260 267 -368 0
-377 -368 243 -255 -140 -263 0
-221 -368 -156 -144 -333 0
-368 -137 -252 269 -242 -167 243 -372 -140 -255 0
-367 -167 -246 -252 -333 -221 -368 150 264 -254 0
-370 -167 -221 150 -333 -246 267 -252 -368 0
-368 -117 -140 243 242 -246 367 -269 -255 -156 -263 147 -270 -162 159 138 -254 153 0
-370 -252 -368 -225 -167 -242 -255 -137 -140 243 0
-137 -368 -242 -255 -250 -258 269 243 -372 -140 -202 0
372 -182 -368 -256 -176 -255 243 -242 224 144 -250 -259 156 147 267 138 247 0
-255 -368 269 -370 -140 -372 121 243 267 0
-221 -368 -371 268 -336 -367 -227 -219 -333 264 -331 0
-370 -258 -121 -146 39 -368 243 263 -270 168 159 0
-368 -221 118 -367 -370 267 -219 -333 264 -331 0
-255 -368 269 243 -242 -248 -140 -372 -257 246 -155 138 247 0
-370 -242 243 -368 150 -225 -255 -140 -246 138 -254 0
257 -245 243 -263 144 -368 -140 141 -176 324 372 -146 -242 -377 -270 -250 159 -194 247 0
250 267 -243 -259 -263 144 -150 141 156 -269 -246 -242 270 374 272 162 249 138 -254 0
272 374 168 261 156 144 -269 -147 270 367 257 162 249 138 -254 -181 0
-244 -374 168 270 126 156 261 144 -269 -147 242 367 257 162 272 138 -254 0
415 -385 121 -257 -252 210 -219 -367 -167 269 156 264 -331 247 0
-155 269 -367 -219 121 415 210 -167 -257 -259 -252 156 264 -331 247 0
-166 -269 -168 147 367 -260 -243 -250 257 162 249 138 -254 211 0
-166 -176 -168 -256 243 -381 144 147 -269 367 270 -255 -250 257 -202 249 138 -254 211 0
-370 -225 -166 -168 0
-243 269 -257 141 -367 121 -372 246 -259 156 -250 123 162 138 -254 0
-250 -367 -168 -246 -372 269 -202 138 -254 0
144 250 269 -270 147 -367 168 -372 257 162 159 138 -254 247 0
250 375 269 162 -372 156 -243 -242 -259 -231 121 -140 138 0
269 -372 -147 156 168 144 -246 -270 367 -250 162 159 138 -254 122 0
-245 269 147 261 -150 156 374 -246 -242 270 -372 162 249 138 -254 247 0
-245 269 168 147 261 -150 156 374 -246 -242 270 -372 162 249 138 -172 247 0
-132 375 269 144 168 250 -270 147 -372 -367 257 162 159 138 -254 -181 0
-375 121 -263 -261 374 269 252 -186 -372 -202 249 0
-252 269 267 -374 147 270 249 138 -254 247 0
-374 126 270 269 407 267 -372 0
-375 -235 -195 -245 -372 147 -243 269 -261 0
-245 -381 269 -176 -257 150 144 147 121 -367 -243 -162 264 -254 247 0
156 150 -372 242 -176 -246 263 367 -243 269 -195 144 -121 -270 168 159 138 -254 122 0
-155 -232 -257 246 269 -259 252 156 -263 168 247 0
-372 -250 -147 -246 269 -367 -202 138 -254 0
-252 -156 367 -246 269 147 249 138 -254 247 0
226 -367 147 -219 -269 141 156 168 246 -232 -270 -250 -257 162 159 138 -254 122 0
226 -250 -255 147 -202 156 168 -367 141 -246 -259 -263 138 -254 0
-407 250 -235 119 -261 -146 419 246 -242 270 374 -257 249 -194 0
-407 -242 168 371 248 144 269 -155 -259 246 261 -270 -372 -257 162 159 -194 247 0
-407 250 -225 -261 367 150 -226 -246 270 374 162 249 138 -254 0
-407 -371 156 -269 168 147 -140 -375 -259 -261 246 -242 -270 250 -257 162 138 122 0
-248 375 -407 -227 -141 -336 156 268 -371 -242 250 162 138 0
-374 -239 246 -370 -263 252 -233 -407 119 270 -257 0
-374 -407 -370 -372 269 121 270 74 0
250 -261 -202 -263 -224 -256 -246 252 0
39 375 -256 250 -224 267 -146 -246 -226 162 0
-224 126 -374 -269 263 -385 243 -140 393 -232 -147 -246 -260 -150 122 0
393 -224 -269 144 168 147 261 -371 -225 141 -374 246 -242 270 -257 162 249 138 122 0
-224 -225 -219 -235 -381 267 -261 -226 250 -367 162 264 205 -331 0
-243 267 -246 -224 -259 -367 147 -195 141 -225 156 -381 -168 -180 264 -254 0
-374 74 168 -233 -224 -242 -267 269 261 121 147 270 -372 257 -381 -194 0
-224 -246 367 252 -121 393 141 242 -171 -137 255 -260 249 138 -254 122 0
-141 -263 100 -257 115 252 -147 246 -224 0
-224 -256 257 267 -192 -375 -226 250 168 -242 -261 111 -252 -263 -202 264 -194 205 -181 0
-374 126 -224 -140 267 -255 144 -176 -263 147 -381 270 168 242 138 -254 0
263 126 243 -242 -374 -269 141 270 -202 -137 -224 257 -250 -181 0
-374 -185 -221 -333 -381 -17 -219 243 -137 242 270 -224 264 205 -331 0
-224 -141 -219 -259 -242 -269 -257 268 156 -263 147 -270 -162 159 138 -254 153 0
-252 -224 -141 -259 -256 -242 -162 156 -257 138 -254 0
-252 -141 -242 -162 -256 -257 -224 267 147 138 -254 0
-224 124 -263 243 -232 100 252 -150 -242 -269 -259 156 -147 -202 -270 -137 -250 -246 159 211 0
-232 -385 46 210 -263 243 246 141 268 -269 -257 -367 -224 -270 -250 168 159 138 -254 211 0
252 243 -263 -372 144 -224 -219 -258 269 257 141 -140 -270 100 -367 121 159 264 -331 -181 0
257 126 -243 147 -269 -270 -202 -367 -224 141 -250 138 -254 122 0
-224 367 -255 150 -246 -259 -256 242 -140 156 138 -254 0
-224 144 -269 -246 263 242 -137 -140 168 243 -270 367 159 264 205 -172 122 0
-256 -224 -141 371 -257 -375 246 -261 0
-224 -250 -259 -141 150 242 -256 -257 -245 147 367 156 138 -254 0
-226 -381 -140 39 -259 -224 -146 267 -255 156 -256 -202 243 144 -250 367 264 138 -172 0
-381 -336 -250 -202 -219 -224 268 246 168 -367 -227 -263 264 -331 0
65 -183 246 -155 -232 -224 -257 -137 -259 -250 -202 -242 -256 0
-119 -371 243 -137 -269 120 -263 -257 -242 100 141 -270 -224 -250 252 -202 159 211 0
-224 245 -257 150 -162 156 267 -259 -141 -242 -219 -146 -256 138 -254 0
-224 269 -372 -150 259 243 -155 -146 245 156 209 -270 -162 159 122 0
-226 257 243 -140 -255 -372 147 269 -270 -367 -258 -224 159 138 -254 -181 0
-221 -224 147 -245 -219 -333 -367 243 156 -381 -385 264 -331 0
-224 -226 -255 267 243 -381 -156 -162 0
-252 -224 -385 -140 168 -367 113 156 -333 -381 264 -254 0
-226 -224 -263 -256 168 252 -246 -382 0
-244 -224 -232 243 65 -259 -333 -381 -155 -221 0
-382 250 -226 -374 269 156 246 -242 270 -372 -371 -257 162 249 138 -172 247 0
-382 -242 147 168 250 -269 -375 144 -255 -140 246 -261 -270 -371 -257 162 159 138 153 0
-382 261 -168 -156 144 -246 242 -270 -372 267 -180 162 159 138 -254 211 0
126 -374 144 141 261 -382 150 -269 -226 -242 270 -246 162 138 -254 0
-382 250 -141 -261 -226 -242 270 -246 162 249 138 -254 0
-382 261 244 147 243 -367 168 269 141 -140 144 -256 -246 242 -270 -372 159 138 -254 247 0
-382 -367 147 -259 141 -269 168 156 -219 246 -232 -270 -250 -257 162 138 -254 122 0
-382 144 -269 147 258 250 -367 150 168 -375 -225 -261 156 -137 -270 -246 162 159 138 -254 153 0
-382 -367 156 -263 147 -385 150 250 252 -261 168 -246 162 -254 0
-382 -385 147 252 250 -137 -367 -375 -269 150 168 -261 156 144 -270 -246 162 159 -254 153 0
-382 162 -176 -261 -256 168 -381 -263 144 -374 -226 -242 270 267 -246 249 -194 0
-382 -112 144 168 -102 261 263 259 124 -371 -226 -374 -227 121 269 156 268 270 -372 -336 162 249 -194 247 0
-382 162 -242 -269 261 -374 -156 144 141 150 270 -246 249 138 -254 122 0
-226 -255 -156 250 -140 243 -261 -150 -382 162 0
-374 -382 168 126 -226 261 144 -242 269 270 -372 257 162 256 -194 0
224 -226 257 -242 168 144 156 -382 261 263 121 269 -372 -176 138 0
261 -382 -242 -140 141 252 147 100 216 -121 377 -258 -270 257 159 138 0
-382 -248 -242 -261 -226 -155 270 250 162 249 138 0
-374 126 -226 -382 -242 -176 144 -261 270 250 162 -381 -194 0
-381 -235 -226 -242 144 -261 -372 269 250 -382 162 -194 0
-176 250 -382 144 168 -235 -242 -261 -226 -381 252 -263 162 -194 0
-382 -226 250 147 156 -259 -261 -242 270 -374 162 249 138 0
-248 -382 -261 270 -242 147 156 250 162 249 138 0
-382 126 -125 259 -381 -374 -269 144 141 -242 156 147 270 168 -176 138 -254 122 0
-382 267 -242 147 -263 168 -195 -140 -243 270 -246 249 138 0
-410 -382 150 -226 -242 -232 123 -155 -246 270 249 138 -254 0
-374 -382 -226 -259 -232 -155 246 270 -257 126 0
-226 -382 -252 -242 -232 -167 -137 -259 -155 270 249 0
-382 -239 -219 252 -367 168 270 -226 249 264 -331 0
-374 -382 -231 -226 -263 252 -232 168 270 126 0
-382 257 168 156 -367 -232 252 -155 -374 -269 270 -219 -226 249 264 -331 153 0
-374 -263 -226 168 144 -242 252 -381 -176 -382 270 126 -194 0
-382 -374 252 -226 168 -239 246 270 -257 126 0
-382 -381 168 -226 144 267 -246 -263 -374 243 -221 -242 270 -333 249 -194 0
-385 -382 -192 -232 -246 168 -263 147 329 -242 -260 249 -194 0
-382 -141 -367 258 -269 156 144 147 168 -202 -246 -270 -250 -139 126 138 -254 153 0
-372 -267 -257 162 249 138 -254 247 0
-372 250 -246 -257 162 249 138 -254 247 0
-372 250 -257 162 249 138 -254 247 0
261 -372 -374 242 270 246 -257 162 249 138 -254 247 0
-372 250 162 249 138 -254 247 0
-372 162 270 249 138 -254 247 0
-372 162 249 138 -254 247 0
-372 162 168 270 249 138 -254 247 0
-372 162 147 168 270 249 138 -254 247 0
257 126 147 -250 168 -270 -372 162 138 -254 122 0
-141 -372 147 270 168 162 249 138 -254 247 0
257 162 -270 -140 141 252 -256 156 121 -375 144 269 -242 168 -261 -372 159 138 122 0
-141 -372 367 -258 147 -270 -250 168 257 162 159 138 -254 122 0
-141 -372 -374 -147 270 -250 168 257 162 249 138 -254 122 0
257 -242 144 141 168 -252 -235 269 367 -270 -261 -372 250 162 159 138 -172 -181 0
-267 257 -242 269 -374 -266 147 270 16 -261 -372 250 162 249 138 -172 0
121 267 -259 257 -235 156 144 168 147 -226 -242 269 -270 -261 -372 250 162 159 138 -181 0
-381 -252 -261 144 -235 168 -372 269 250 -242 162 -194 0
250 257 147 -270 144 121 168 -242 269 156 -261 -259 -372 162 159 138 122 0
-235 -252 147 -242 -261 250 -372 168 -225 121 269 162 -194 0
-235 -268 -270 367 121 168 147 -242 269 141 -252 -261 -372 250 162 159 138 -172 0
-245 250 162 -372 -259 156 -261 121 -235 269 -231 -242 147 138 0
121 -261 -140 141 147 250 144 168 252 257 -242 269 -270 -235 -372 -266 162 159 138 0
-202 -372 -257 270 249 138 -254 247 0
-144 -372 269 246 -257 -260 -162 249 0
-372 246 -367 -257 269 -219 270 249 264 -331 0
-144 126 -374 242 147 156 -257 270 -162 -372 138 -254 122 0
-267 -250 367 141 -259 -374 144 246 242 147 156 -257 270 -372 168 249 138 -254 153 0
-372 -162 -144 141 -242 156 -374 147 270 -246 249 138 -254 122 0
-246 -372 144 141 156 -242 147 270 249 138 -254 247 0
-261 375 -372 150 -259 144 141 -242 250 -270 156 -246 162 159 138 -254 122 0
126 168 -372 156 -147 -270 367 -250 -246 162 138 -254 122 0
267 -261 242 168 144 156 250 -150 147 -270 -269 -246 -372 162 159 138 -254 122 0
-242 -372 159 -147 168 16 156 -270 269 -250 -246 -202 138 -254 122 0
252 375 250 259 -236 -150 -244 144 100 156 -246 -242 -270 269 -147 -372 138 -254 0
250 257 156 168 -261 -242 144 -270 269 -121 -372 162 159 138 122 0
-374 126 270 -246 -372 -242 150 269 138 -254 0
-235 -242 -121 168 250 -261 -156 257 -270 367 269 -372 144 162 159 138 -254 -181 0
126 -374 141 257 -219 147 269 -250 168 270 -372 -202 138 -254 0
-374 242 270 -259 147 -372 156 269 -245 249 138 -254 247 0
141 156 -372 -243 147 -121 -270 367 -250 -258 162 138 -254 122 0
257 375 147 156 168 250 -242 -270 -258 -121 -372 162 159 138 122 0
250 257 156 144 147 168 -242 111 -261 -270 -258 -121 -372 162 159 264 138 122 0
257 375 144 156 250 168 -261 -242 -121 -270 -258 -372 -248 162 159 138 0
257 375 156 250 147 168 -242 -121 -270 -258 -372 -248 162 159 138 0
-245 261 -372 147 168 156 242 -121 -270 367 -258 257 162 138 -254 122 0
250 257 144 156 -140 -261 -242 -121 -270 -258 -243 -372 162 159 138 -254 122 0
250 -235 367 168 -242 -144 257 -270 -258 -121 -372 162 159 138 -172 122 0
257 375 156 250 168 -242 -144 -270 367 -258 -121 -372 162 159 138 -172 122 0
250 257 -270 147 168 -261 -121 269 -235 -242 -372 144 162 159 -194 -181 0
250 -268 -270 -121 147 168 -261 144 269 -235 -242 -372 -252 162 159 -194 0
121 -372 -367 270 269 168 156 -219 -259 -252 249 264 -331 247 0
256 -258 147 259 -186 374 -372 -245 144 -121 -242 -140 -167 -246 168 249 138 0
-371 375 250 168 -336 -227 -266 269 156 268 -242 -270 121 -372 259 159 -194 0
-422 -374 -233 -339 147 367 -259 -372 156 111 -245 242 -258 -337 121 138 -254 0
-141 -263 -258 246 252 -372 -257 -162 0
239 -263 -372 -258 0
-377 -263 -372 -162 -258 -156 0
-224 -102 -372 -150 269 39 -140 243 -156 -146 209 245 168 -270 -272 267 159 0
257 -121 -202 -263 -258 -167 144 -270 156 100 -250 367 -372 252 159 138 -254 122 0
-144 -162 -337 -372 121 0
-245 269 -367 -372 123 -162 -243 156 147 -259 138 -254 0
-374 -243 141 -372 -248 269 -367 121 156 -162 264 -254 0
-372 -245 -367 -246 269 -141 138 -254 0
-245 -243 -367 269 147 -140 121 -372 -219 264 -331 0
-373 -231 -146 -242 -259 -372 -155 121 -245 269 65 -194 0
-373 -231 -259 -243 269 -242 -140 121 -372 138 0
115 -255 113 -242 -148 121 -372 246 268 267 -227 144 243 269 -226 -257 138 -254 0
-255 -368 246 -259 243 269 -231 -140 -372 -373 121 -257 247 0
-245 -255 150 121 243 367 242 147 -372 268 269 138 -254 0
257 141 -372 -258 -270 147 -202 168 -250 -242 159 138 122 0
-156 -242 -257 -202 -270 246 -250 168 -372 267 159 138 247 0
156 144 147 -202 -257 -372 -270 -242 -250 168 246 267 159 138 247 0
257 243 141 156 147 -202 -270 144 -250 -258 367 -372 159 138 -254 122 0
-244 -255 242 267 367 -140 243 269 -372 147 144 138 -254 0
-117 267 -372 -258 0
-242 -141 144 -250 156 168 246 -270 -147 -372 -257 -202 159 138 247 0
257 263 -258 -202 141 -242 -270 168 -250 -147 -372 252 159 138 122 0
-144 156 367 -372 -202 141 147 242 -246 269 -270 263 -250 -245 138 -254 122 0
-221 -245 -250 -372 -255 156 -259 243 -258 367 -231 -202 147 269 138 -254 0
-382 -226 -140 -367 243 -255 -372 121 269 -219 264 -331 0
-226 39 120 -372 267 269 -202 -257 -371 -250 -146 -137 -242 247 0
-372 -367 -219 -243 -195 121 -246 150 269 264 -331 0
-173 -243 -367 -372 -219 121 269 264 -331 0
-232 -140 246 46 -259 -242 -243 268 121 -231 -52 210 -372 269 -227 -336 138 0
-263 252 -336 -258 -227 242 121 -371 -372 367 138 -254 0
-145 -377 -258 -263 -372 -147 0
-231 252 -263 -192 156 269 -232 100 242 -137 -259 -246 -372 121 138 -254 0
267 -226 -263 -372 371 -257 246 252 269 0
252 -367 121 -219 269 246 -372 -257 -263 264 -331 0
123 367 -243 -195 -246 269 150 242 -372 156 138 -254 122 0
-385 -232 -372 -263 100 252 -258 -246 0
250 242 -367 -261 246 267 260 -270 371 -269 -257 162 159 138 -254 122 0
-125 371 -242 144 261 168 -374 -147 156 246 -269 270 -257 162 249 138 153 0
-125 371 -242 141 261 -147 -374 144 156 246 -269 -260 -257 162 126 138 -254 0
261 -269 144 147 -137 168 -367 -225 371 246 -156 -270 -257 162 159 138 -254 153 0
371 -232 -269 162 141 -155 144 156 -140 258 -266 -242 -270 -137 -261 -257 246 159 138 153 0
-232 -140 -257 -255 141 162 -242 -155 64 -259 -137 371 -261 246 138 0
-140 243 113 -333 371 -144 -257 246 -168 0
371 -234 -386 246 -257 0
371 -385 147 -180 268 -232 150 -141 267 -242 -52 270 249 138 -254 0
371 242 -236 -269 -367 147 -261 246 -375 -270 -245 -257 -202 159 138 -254 122 0
74 -374 246 -243 -158 -269 268 -52 -242 -147 263 -260 371 -180 -162 138 -254 122 0
121 -242 159 168 -375 269 -235 -141 -245 156 -261 246 -266 -270 -372 -257 371 162 138 0
-226 126 -140 246 -374 -255 267 118 -260 371 -257 243 0
-375 -245 246 162 -257 -141 371 -261 -263 252 0
371 -257 246 -263 252 242 270 119 249 138 -254 0
-374 371 -255 -242 -140 118 246 267 270 -226 -257 126 138 0
126 -250 246 144 -52 -269 268 -374 -242 255 141 -252 156 210 -180 270 371 46 168 138 0
267 371 -367 -144 -225 168 246 147 113 -259 -255 156 -263 -257 264 -254 0
-244 -263 168 -259 -257 144 -111 371 246 156 -254 0
267 -225 -255 -257 113 246 -263 -259 168 147 -219 156 141 371 -367 264 -331 0
-226 267 371 246 -257 252 -156 -263 -162 0
-263 -225 246 -156 144 168 -257 -141 147 371 115 -367 264 -254 0
371 -393 -137 -195 367 150 138 -254 0
-144 39 -156 -121 371 -202 -146 209 245 -242 168 246 -270 -137 -250 243 -257 267 122 0
-375 -235 -263 371 -367 -257 -219 252 246 -261 -202 264 -331 0
-375 371 168 147 156 263 -245 -52 -235 -367 -219 -269 -261 268 246 -270 -180 -202 159 264 -331 153 0
-176 -245 371 150 147 -248 -381 156 144 0
-226 39 371 -202 168 -242 144 -146 -270 246 267 -250 -372 -257 -137 159 153 0
267 141 156 -250 -242 -372 144 -270 371 -202 147 -257 246 159 138 247 0
-115 252 246 -263 -257 -140 141 371 243 -270 -269 159 211 0
-252 -156 243 367 245 267 -258 257 321 324 209 249 138 -254 247 0
-156 -242 -258 -121 -270 246 -250 168 -267 -257 162 159 138 0
-374 74 270 -258 252 -137 367 242 121 -372 269 -263 138 -254 0
257 -167 -263 -372 -202 -147 -270 141 100 -250 -258 -242 252 159 138 122 0
-176 -242 -333 113 141 245 248 144 -259 115 246 -155 -270 250 267 -257 162 138 -254 211 0
-333 -140 371 -147 119 -257 243 246 -156 113 0
-234 113 367 -140 -252 -386 -333 -144 -156 168 138 -254 0
113 243 -156 -140 -144 -137 367 -333 242 264 205 -172 0
-374 126 -252 156 -259 -195 144 242 113 367 168 270 -333 -244 138 -254 0
-245 113 141 -333 -192 -263 100 -367 -250 -202 147 252 264 -254 0
-382 -333 -192 144 -250 113 -226 252 141 -167 -263 -367 -381 -202 264 -254 0
250 267 156 -269 -246 -242 270 -150 141 -257 162 249 138 -254 122 0
-261 -242 141 144 258 -269 168 371 156 252 246 256 -270 250 -257 162 159 138 -254 153 0
261 242 147 141 367 156 -269 246 144 -270 267 -257 162 159 138 -254 153 0
141 144 147 -137 -367 261 -269 246 156 -270 267 -257 162 159 138 -254 153 0
141 144 168 242 156 246 367 270 -372 -250 -257 162 249 138 -254 122 0
261 144 -246 147 141 242 168 150 269 367 -270 -372 267 162 159 138 -254 247 0
141 -140 -257 -259 -261 -242 -243 246 371 156 162 138 0
141 374 144 168 -269 -242 156 246 367 270 -250 -257 162 249 138 -254 122 0
-374 267 -269 168 147 -255 371 141 261 246 -242 270 144 -257 162 249 138 -254 153 0
267 156 147 -269 250 -367 168 -375 144 -261 252 -270 -372 -246 141 162 159 138 -254 122 0
-245 -375 141 -269 250 -219 252 147 -367 -235 168 -261 156 -270 -372 -246 162 159 264 -136 -331 122 0
-154 126 147 -270 -367 144 -250 -372 257 162 141 138 -254 122 0
261 -245 -244 147 141 144 -270 -367 372 257 159 138 -254 247 0
141 261 367 168 144 270 -147 162 249 138 -254 247 0
250 257 147 -367 -374 270 -261 156 -269 141 162 249 138 -254 211 0
261 372 -219 -367 168 -243 141 156 270 144 257 162 249 264 -331 247 0
126 123 141 -267 -246 -374 144 242 156 147 -372 -260 -162 -150 138 -254 122 0
126 259 141 -267 -246 -374 144 242 156 147 -372 -260 -162 -150 138 -254 153 0
144 156 -219 -372 267 -367 263 -246 -259 374 141 -137 147 270 -162 249 138 -254 122 0
-375 141 367 144 270 147 -243 162 249 138 -254 247 0
-202 141 -255 -260 -162 249 138 -254 0
126 144 141 147 243 -270 -154 -367 -250 257 162 258 138 -254 122 0
-119 -371 162 -259 168 -269 242 141 -148 156 367 -270 -250 -257 268 138 -254 122 0
126 -252 371 -367 168 -52 246 -219 411 -374 156 -180 270 268 -259 264 -331 0
-244 -242 -371 -148 144 168 -239 -186 -263 -192 268 374 -257 249 -194 0
-141 -263 258 -269 -257 367 156 268 147 -270 -162 159 138 -254 153 0
-252 -156 367 -257 -269 268 -263 147 -270 -162 159 138 -254 153 0
-141 -263 -242 258 -269 -257 -219 156 268 147 -270 -162 159 138 -254 153 0
-141 -263 -259 -176 -242 252 246 -269 -257 -219 156 268 147 -270 -162 159 138 -254 153 0
263 147 144 -269 -255 -257 367 156 243 268 -270 -162 159 138 -254 153 0
-232 243 -255 -257 246 -385 268 -162 -144 0
-225 -176 156 -367 245 150 -336 -250 -385 267 141 -243 -256 -259 144 -219 -227 115 268 147 264 -331 0
-245 115 -333 147 242 113 -257 367 -148 -137 144 -371 268 -195 264 205 -172 0
-374 -245 -371 268 -250 -227 -233 270 147 -336 -202 0
-225 -252 268 -257 168 242 367 -148 147 -243 -195 -371 138 -254 0
-243 269 -227 -372 -195 -371 -252 121 168 268 -336 0
-245 250 -186 -269 261 156 -246 242 147 -260 374 -180 162 249 138 -254 122 0
-245 121 156 147 -219 269 -367 374 261 -246 270 -372 162 249 264 -331 247 0
-245 -261 -269 -259 144 168 250 156 -246 -242 -270 -150 162 159 138 -254 122 0
-245 261 252 168 269 144 156 -141 -246 242 -270 -372 162 159 138 -254 122 0
-245 126 367 156 -261 246 242 -270 250 -257 162 -269 138 -254 122 0
372 126 -374 -219 -367 270 -246 261 162 -245 138 -254 247 0
-245 -252 250 147 -137 -367 -141 168 144 156 -261 258 -270 -150 162 159 205 -254 153 0
-245 -111 144 168 -246 -156 261 -367 -270 372 162 159 138 -254 247 0
-245 -225 -261 -246 372 -270 -374 -367 250 162 159 138 -254 247 0
-245 261 -195 147 -258 367 168 144 -243 -246 242 -270 -372 162 159 138 -254 0
-245 242 -195 269 147 144 367 156 -243 246 261 260 -372 -257 162 159 138 -254 247 0
126 -374 -245 261 141 -140 156 -246 147 -242 270 -144 372 162 263 138 -254 247 0
-245 261 -246 168 147 156 367 260 -270 372 162 159 138 -254 247 0
-245 261 -242 168 147 -156 -246 16 -270 372 162 159 138 -172 247 0
-245 261 -242 -140 -168 -246 147 260 -270 372 162 159 138 -172 247 0
-245 162 261 -140 -168 156 147 -242 270 372 -246 249 138 -172 247 0
-245 372 261 -140 156 -246 -168 270 -242 162 249 138 -254 247 0
-245 -367 144 168 147 -156 -246 374 270 -257 162 249 138 -254 247 0
-245 -242 -373 144 156 168 -377 -146 -246 261 260 -270 372 162 159 -194 247 0
-245 263 144 261 -102 141 -140 156 168 -246 147 -242 270 372 162 249 138 247 0
-245 -272 261 144 141 -140 147 168 -246 -156 -242 270 372 162 249 138 -172 247 0
-245 -367 156 168 147 -144 -246 374 270 -257 162 249 138 -254 247 0
-245 -242 261 243 144 -140 -259 147 156 246 -270 372 -257 162 159 138 247 0
-245 -242 261 147 141 243 168 -140 -227 -259 156 246 -270 372 -257 159 138 247 0
126 -374 -245 242 -337 147 144 -269 156 168 -246 367 -260 -250 -202 -141 138 -254 0
-231 -242 -145 -168 -245 -176 -256 144 -255 156 -246 -259 138 -254 0
-261 -245 147 -256 168 144 -242 -263 -192 250 -246 -202 -194 0
-245 250 156 -219 -261 147 -269 -150 -235 374 -367 270 -246 162 249 264 -136 -331 153 0
-245 -261 -141 -269 -259 144 168 250 156 -246 -242 -270 -150 162 159 138 153 0
-245 -261 -243 -269 -259 144 168 250 156 -246 -242 -270 -150 162 159 138 -254 153 0
-245 250 168 367 144 147 -261 -269 -374 156 207 242 270 -246 162 249 138 -254 122 0
-245 250 -269 168 367 156 147 -261 -248 144 -374 141 242 270 -246 162 249 138 -254 122 0
255 -245 147 168 208 -235 -261 263 374 156 269 -246 -242 270 -372 250 162 249 138 0
-245 250 259 144 168 141 -219 -252 147 -269 -367 -261 156 -246 270 -386 162 249 264 -331 0
-245 242 147 144 256 168 -246 -150 261 -156 -270 372 162 159 138 -254 247 0
-245 374 -269 144 168 -375 -263 -242 147 270 257 162 249 -194 0
-245 257 144 -141 242 147 270 367 -269 250 162 249 138 -254 122 0
-245 257 -144 -168 -242 -140 -269 147 270 258 250 162 249 138 211 0
-245 257 -242 374 261 269 147 270 16 -372 -144 249 138 -172 247 0
375 -377 -231 250 147 -245 -259 156 -242 -263 162 138 0
261 -245 147 141 144 242 269 -270 367 -372 257 162 159 138 -254 -181 0
-245 123 242 -263 -259 -261 147 326 156 -246 374 168 250 162 249 138 -254 0
-245 -374 367 -269 144 242 -141 147 -260 261 257 162 126 138 -254 122 0
-245 257 147 -367 -219 156 -374 270 141 -261 -269 250 162 249 264 -331 0
-245 126 141 -125 -374 144 -242 -140 147 270 -269 250 162 257 138 -254 -181 0
-144 -375 -263 258 168 -192 -141 -245 147 242 -261 -270 367 257 162 159 138 -254 153 0
-374 367 147 126 -245 242 168 156 -144 270 -372 -250 -246 162 138 -254 153 0
-374 -263 -141 126 242 261 -245 -144 -167 147 270 367 257 162 -269 138 -254 0
-374 367 168 -269 126 -337 -245 242 147 141 156 144 270 -250 -246 162 138 -254 122 0
-245 374 -375 100 -141 -266 -261 -269 252 270 257 162 249 0
369 -212 141 -269 -219 144 -367 261 -263 -245 147 168 270 257 162 249 138 -254 0
-245 -192 147 -242 -231 252 156 -144 -235 -263 100 -259 -375 -269 -270 257 162 126 138 211 0
126 -245 -192 147 -263 -236 -144 242 168 -269 -270 367 156 257 162 -259 138 -254 211 0
-245 -242 -202 147 -250 -194 0
121 -245 269 250 144 375 -270 147 141 -367 -372 -219 257 162 159 264 -331 -181 0
375 -261 -256 144 250 -140 -242 147 257 -245 -255 162 138 -181 0
375 -245 250 -259 147 -140 -168 -144 -242 -255 162 138 0
261 -245 147 144 168 269 242 270 367 -372 162 249 138 -254 247 0
-245 252 126 -141 144 367 156 -270 168 -250 257 162 258 138 -254 153 0
-245 252 367 -266 168 242 -258 -270 -141 -372 257 162 159 138 -254 0
126 -207 -248 168 156 144 -374 242 -269 147 -260 367 257 162 -245 138 -254 0
-245 250 159 -195 147 -259 219 144 156 -261 -139 162 375 264 -254 153 0
261 -245 156 -144 -111 -246 168 147 -252 242 -270 372 162 159 138 -254 247 0
-245 250 -367 -261 -219 270 -374 147 156 -259 162 249 264 -331 0
126 -235 -261 -263 -245 208 -242 209 100 252 -374 212 270 -146 162 250 264 -194 205 211 0
126 -374 270 -245 -381 -261 -242 144 -146 162 250 -194 0
-245 250 270 -261 -242 -144 147 -374 16 156 -255 -259 162 249 138 -172 0
-144 -239 -192 -231 100 -245 -259 -232 -141 -263 252 162 0
-245 -367 -202 -156 -219 144 147 246 -269 -270 -250 168 -257 159 138 -254 122 0
-140 -245 -121 147 -242 144 141 250 -261 -387 -270 -258 257 162 159 138 0
263 -245 144 261 -141 147 156 168 -102 -246 -242 270 372 162 249 138 -172 247 0
-244 -111 242 -246 168 259 374 -245 -269 -186 261 156 147 144 249 138 -254 153 0
-374 -245 270 150 -372 147 269 121 -246 399 0
-245 250 144 -242 -261 -256 147 270 -386 162 249 -194 0
375 -195 -242 147 250 -263 -255 168 -144 -236 -245 -246 138 -254 0
-374 126 -269 252 100 -246 -245 -263 147 261 -259 144 -140 156 243 -242 270 -337 138 0
-242 375 -269 250 -144 -259 168 -261 156 -246 -245 -270 -150 162 138 -254 122 0
-242 -245 -168 -256 -259 -150 144 -176 -261 156 375 250 162 138 0
-245 -176 168 -252 -150 377 -127 -269 -256 144 259 -261 156 -242 -270 250 162 159 138 -254 153 0
-242 -245 -259 -150 369 -123 -382 -176 144 113 -168 138 -254 0
-252 -242 259 -150 -245 369 -256 -269 -176 144 168 -261 156 377 -270 250 162 159 138 -254 153 0
-245 -246 -386 -259 -256 144 -242 156 147 -260 249 138 0
-245 -259 147 -374 246 -144 156 -242 -257 270 -162 249 138 0
126 147 141 144 -256 -219 257 168 -263 -270 -269 -367 -245 250 162 -381 138 -254 211 0
-245 126 156 144 141 369 -259 -219 147 168 -263 -256 -270 -269 -367 -176 250 162 257 138 -254 211 0
-252 -245 141 242 156 -269 147 258 -367 168 375 -261 144 -270 250 162 159 138 -254 153 0
-234 -245 -195 147 219 168 -386 144 250 -252 264 -254 0
-374 -245 270 -372 -233 -146 -242 269 121 -194 0
-245 242 -269 -111 -246 -195 150 374 156 147 -180 -186 168 249 138 -254 153 0
-245 -246 147 -180 252 367 242 263 -121 141 150 -374 144 270 249 138 -254 122 0
372 -245 -367 147 -202 -263 168 -250 264 -254 247 0
256 -245 -386 261 156 -242 269 147 270 -372 -268 162 249 138 247 0
-245 -202 -263 -148 147 156 -250 -246 -367 168 -259 138 -254 0
-245 -246 -192 144 -242 168 -176 147 -263 -256 270 249 -194 0
-374 -333 270 -246 113 -195 150 -219 -245 367 147 242 -137 -180 399 264 205 -172 0
-245 113 -259 156 147 -242 16 252 -374 100 -333 -144 -263 270 249 138 -172 0
-245 126 393 246 -374 -156 -269 -242 147 -257 -260 -162 144 138 122 0
-245 126 147 -125 243 -269 -381 -374 -382 144 393 141 -242 156 259 270 168 -176 -194 122 0
-234 -242 -386 -246 -255 144 -256 -245 147 -140 138 0
126 -374 243 -259 -381 144 -333 156 147 -221 -242 270 -245 138 0
-377 -239 162 -245 -141 0
-234 -231 -242 -386 -259 -245 156 -263 147 -377 138 0
-245 -252 -125 141 -269 -374 156 147 242 257 -260 168 -158 74 138 -254 0
-374 367 270 -144 -245 -167 123 -142 242 156 147 -192 -263 126 138 -254 0
126 -374 -245 270 -243 367 -195 -192 168 147 -263 242 138 -254 0
-245 126 -333 156 113 -374 -140 147 -259 -242 270 246 -257 138 0
-374 126 270 -375 -261 -235 -242 -146 -245 -194 0
126 -374 156 -259 -381 144 -242 147 246 270 -257 -245 138 0
-141 -245 252 -259 147 -242 -263 -162 156 -257 268 138 -172 0
-393 -375 -245 168 367 144 242 -176 -261 257 272 -256 147 162 138 -254 -181 0
-141 -245 -239 242 -259 -257 -162 367 147 156 -263 138 -254 0
126 -374 367 147 -243 -269 -195 -245 259 -246 156 242 -260 168 144 138 -254 122 0
-375 250 -168 -245 -150 -140 -242 -255 -261 -246 144 -256 162 138 0
-250 -245 -144 -202 242 141 -255 147 -259 156 367 -246 138 -254 0
-374 -367 -219 270 -246 -245 147 150 399 264 -331 0
-252 -245 147 150 -257 -111 -385 156 168 -254 0
-245 -250 -336 -202 113 141 144 -333 268 246 147 -227 -381 0
-141 -245 -162 -242 252 -256 -149 -176 -257 -263 147 138 -172 0
-374 -235 270 -120 147 150 -245 -261 -246 -375 399 0
-243 -245 367 -259 242 -257 -162 156 147 -144 138 -254 0
-176 -245 150 144 242 -259 147 -162 -256 367 156 -257 -243 138 -254 0
-256 -141 156 150 144 -242 -259 -162 -245 147 -257 -176 138 -172 0
-337 -242 -258 -245 -144 -259 -257 156 147 -162 138 -172 247 0
-235 -375 -372 -245 -150 269 -261 -242 -194 0
-141 -245 324 -257 144 150 121 -367 -162 -176 147 -381 264 -254 247 0
-245 415 -257 156 123 -259 -367 150 -219 -182 372 147 264 -331 247 0
-374 -221 150 144 -381 243 -333 -257 268 -259 -176 -367 156 147 -245 -162 264 -254 0
-176 -245 144 150 -257 -381 -111 -259 156 147 -254 0
321 256 257 168 261 144 162 -272 0
-276 327 321 261 0
282 321 -266 261 0
266 -141 100 367 -225 -263 144 -156 -246 242 138 -254 0
-225 367 -195 242 -246 147 168 -243 -263 266 144 138 -254 0
242 -225 168 -263 267 -141 144 156 -259 266 -246 138 -254 0
261 242 -382 144 -269 147 -154 -156 150 -246 -195 -270 -180 162 159 138 -254 211 0
261 242 -246 -243 367 -195 168 150 -258 144 -270 -372 162 159 138 -254 0
-111 -245 -269 -243 250 -195 375 147 168 -261 144 242 -270 -246 162 159 138 -254 153 0
261 242 -393 144 168 -246 -195 -270 372 162 159 138 -254 247 0
-374 372 144 -252 168 147 270 -195 -242 393 261 257 162 126 138 247 0
-245 267 -219 -367 147 -255 270 -259 -195 -252 168 156 249 138 -254 0
-252 -195 -150 -259 -140 -255 -242 144 -269 156 147 -270 -162 159 138 153 0
-269 250 -242 270 -246 -257 162 249 138 -254 247 0
250 162 -372 270 -246 -257 249 138 -254 247 0
267 250 -374 242 270 -372 -246 -156 -180 162 249 138 -254 122 0
-374 -156 -246 -147 -269 261 367 242 -260 162 126 138 -254 122 0
261 -372 242 -270 -246 -257 162 249 138 -254 247 0
261 242 -372 -259 269 141 156 150 367 168 -270 -246 159 138 -254 122 0
372 267 367 270 -246 261 162 249 138 -254 247 0
-144 267 150 -375 156 -261 -367 -270 -372 -246 250 162 159 138 -254 122 0
261 367 -246 260 -270 372 250 267 162 159 138 -254 247 0
-144 -252 245 267 168 147 261 156 367 -270 372 -246 250 162 159 138 -254 247 0
-156 261 -246 -367 -270 372 250 267 -180 162 159 138 -254 247 0
261 168 144 147 150 -245 -246 -367 -270 372 162 159 138 -254 247 0
-225 375 -259 147 150 156 250 -261 -111 -246 162 -254 0
-267 -148 159 242 123 -270 168 -372 -250 -141 269 -246 162 138 -254 0
267 -255 -242 -256 -176 144 -259 156 -166 -246 -168 138 -254 0
-144 156 -269 267 168 -261 -242 -270 -246 250 162 159 138 -254 122 0
267 -261 168 156 250 -242 -270 -372 -246 144 162 126 138 -254 122 0
267 -261 156 144 -375 -242 -270 -372 -246 250 162 126 138 -254 122 0
126 267 -236 367 156 -261 242 -270 -372 -246 -168 -180 -202 144 138 -254 122 0
144 -168 -236 150 367 -269 156 -261 -246 -270 242 267 -180 -202 126 138 -254 122 0
267 -261 168 156 250 242 -270 -372 -246 144 162 126 138 -254 122 0
156 -261 159 150 367 -269 242 -236 168 -147 -270 144 -246 162 138 -254 122 0
267 -261 168 144 156 250 -242 -270 -372 -246 -259 162 159 138 -254 122 0
267 -261 144 250 -180 -270 -372 -246 242 156 162 126 138 -254 247 0
267 -261 -269 -242 144 156 250 168 -270 -246 -259 162 159 138 -254 122 0
267 -261 -242 168 -269 144 -156 250 150 -270 -246 -141 162 159 138 -254 153 0
250 -261 159 168 156 144 -269 -242 150 -270 -246 162 -259 138 -254 153 0
-144 267 -269 -242 250 156 -261 168 -270 -246 -259 162 138 -254 122 0
267 -261 250 144 -180 -270 -372 -246 242 -156 162 159 138 -254 247 0
-373 156 -155 144 -259 -167 256 -269 252 141 250 -140 243 168 -261 -270 -246 -202 159 153 0
-252 156 159 147 -269 -367 -375 144 141 168 -261 -270 -372 267 -246 162 138 -254 122 0
-168 -242 -375 -144 156 -261 267 -270 -372 -246 250 162 159 138 -254 122 0
250 267 242 147 -374 -261 156 270 -246 -269 162 249 138 -254 122 0
250 267 156 -180 242 270 -246 374 -269 162 249 138 -254 122 0
250 267 -156 -180 242 270 -246 374 -269 162 249 138 -254 122 0
-243 -168 -180 150 367 -246 -225 242 -144 138 -254 0
267 156 147 -219 -269 150 -367 242 250 141 -261 375 144 -270 -246 -259 162 159 138 -254 211 0
267 156 147 -269 150 -367 242 250 141 -261 375 144 -270 -246 -259 162 159 138 -254 153 0
267 144 147 258 150 -367 242 250 156 -261 375 141 -270 -246 -269 162 126 138 -254 153 0
-144 375 168 147 150 250 -367 156 -261 267 242 -270 -372 -246 -259 162 138 -254 122 0
-225 375 147 -243 -261 -367 150 250 -195 -246 -180 162 264 -254 0
-111 375 159 250 -269 144 -195 150 168 -261 242 -270 -246 162 -243 138 -254 153 0
-267 -148 -168 -258 -121 -270 242 -250 -246 123 -202 159 138 -254 0
-168 156 367 -246 -202 242 -270 -372 -250 147 267 159 138 -254 122 0
261 -156 39 144 168 -146 -246 -370 367 -270 372 267 162 159 138 -254 247 0
-248 242 159 -121 144 -258 141 168 156 367 -270 -372 -250 -246 162 138 -254 0
-168 156 -246 -202 -270 -372 -250 -242 267 126 138 -254 122 0
250 267 -269 156 -242 270 -246 -141 162 249 138 -254 247 0
-324 267 147 144 -259 168 -140 141 -252 156 -242 270 -246 250 162 249 138 0
263 162 168 -147 -121 -386 150 261 269 156 -242 270 -246 249 138 -254 247 0
-231 -242 159 -150 -245 144 -259 -140 -258 261 156 -168 -270 -372 -246 162 138 0
144 162 269 261 168 374 141 -121 156 -242 270 -246 249 138 -254 247 0
-261 -236 -246 -202 150 367 -147 -269 -168 156 242 -270 144 -259 159 138 -254 211 0
393 162 -242 168 -147 -269 156 270 -250 -246 249 138 -254 122 0
372 -267 269 144 156 242 -270 141 -250 -246 -168 -202 159 138 -254 247 0
-267 -168 -258 -121 242 -270 156 -250 -246 123 -202 159 138 -254 0
267 -269 -367 150 242 250 -261 156 168 -270 -246 144 162 126 138 -254 122 0
-144 267 -367 168 -261 156 242 -270 -372 -246 250 162 159 138 -254 247 0
267 -269 -367 150 242 250 -375 -261 156 168 -270 -246 144 162 159 138 -254 122 0
374 250 255 150 141 -259 208 -219 -167 -269 -367 -261 -235 156 270 -246 162 249 264 -331 122 0
375 -144 -259 -147 168 -269 150 -111 250 -261 156 242 -270 -246 162 138 -254 122 0
-259 250 -141 150 -261 -155 -232 -242 270 -246 162 249 138 -254 0
-385 250 -261 -141 -232 -242 270 -246 162 249 138 -254 0
-385 250 -232 -263 -261 252 -246 162 0
-261 -232 168 -224 -269 144 252 -385 250 -270 -246 162 159 153 0
-242 -385 144 250 -261 -232 168 -256 -263 -246 162 -194 0
121 -232 168 250 -266 -226 141 267 269 -140 -235 -261 -259 156 -242 -270 -372 -246 -231 162 159 138 0
121 -232 168 -231 -266 250 -375 -226 141 -225 269 -140 -235 -261 -259 156 -242 -270 -372 -246 162 159 138 0
375 -261 -147 219 150 -259 -168 156 250 144 242 -246 162 138 -254 0
-111 261 156 -245 144 168 147 -246 242 260 -270 372 162 159 138 -254 247 0
-337 250 -269 -242 -256 -176 252 259 -141 156 29 244 208 270 -246 162 249 138 -254 0
-324 267 150 156 -269 -141 -242 270 -246 250 162 249 138 -254 122 0
250 267 150 -156 -269 -141 -242 270 -246 374 162 249 138 -254 153 0
-141 -250 168 156 -147 144 -246 -202 -186 374 -372 -367 249 138 -254 122 0
267 250 150 -269 144 156 -141 -242 270 -246 -337 162 249 138 -254 0
250 267 -269 156 150 141 -242 270 -246 -259 162 249 138 -254 122 0
374 162 261 150 -156 -269 141 -242 270 267 -246 249 138 -254 122 0
374 162 -144 261 150 259 156 -269 141 -242 270 267 -246 249 138 -254 153 0
-125 -246 367 168 150 -144 261 -269 -374 156 141 242 270 162 249 138 -254 122 0
-125 -246 156 367 147 -225 144 -269 261 -374 141 242 -260 162 126 138 -254 0
-324 267 147 263 144 -259 -232 156 -269 141 -242 270 -246 250 162 249 138 -254 122 0
261 242 150 144 -111 168 -195 -246 256 -270 372 162 159 138 -254 247 0
374 162 144 168 -121 147 261 141 269 -140 -242 270 -372 267 -246 249 138 247 0
372 261 -255 159 -150 156 168 -147 144 -140 -242 260 -270 243 -246 162 138 247 0
374 250 -269 168 147 144 259 -261 -225 -252 141 156 243 -140 -242 270 -246 162 249 -194 0
-337 250 -269 263 -386 -259 144 -243 125 -79 156 -140 -242 270 -246 162 249 138 -254 0
-337 250 -269 -259 144 -243 263 -374 156 -140 -242 270 -246 162 249 138 -254 0
-242 267 147 -269 -255 -144 -246 374 259 156 243 -140 150 270 261 249 138 -254 153 0
-337 162 168 -269 261 -263 147 -259 144 -374 141 156 243 -242 270 267 -246 249 138 -254 0
-337 250 270 -269 -272 144 232 141 374 156 243 -242 -261 -246 162 249 138 -254 0
-337 162 168 -269 -263 -259 261 144 141 374 156 243 -242 270 -246 249 138 -254 0
250 267 -255 -374 168 147 -261 -263 105 -195 243 -242 270 -233 -246 162 249 138 -254 0
-374 105 126 -263 -255 250 -333 147 -261 -245 168 -140 243 -242 270 -246 162 -221 138 -254 0
-324 267 168 -256 -263 -261 -255 147 144 -374 -140 243 -242 270 -246 250 249 -194 0
256 261 -140 144 -219 243 168 156 -246 -367 260 -270 372 162 159 138 -254 247 0
250 267 -259 -144 -192 -232 207 156 393 -150 -242 270 -246 258 162 249 138 122 0
-324 267 -168 -374 147 -248 -224 -140 141 156 -150 -242 270 -246 250 162 249 138 0
113 -166 -176 150 -168 -242 -246 -381 144 138 -254 0
255 375 -266 168 141 -258 150 250 -242 -270 -372 -246 159 138 -254 0
375 -367 147 -167 150 -252 250 -261 -225 -246 162 264 -254 0
-252 -167 126 -219 -367 250 258 144 156 375 242 -270 150 -246 162 138 -254 153 0
-252 375 242 -367 150 250 168 144 -261 156 258 -270 -246 162 126 138 -254 153 0
-236 -252 159 -269 -150 367 -147 144 168 -261 156 242 -270 258 -246 162 138 -254 153 0
156 208 159 141 168 242 123 -270 -243 -372 -250 269 -267 -246 162 138 -254 0
-243 -168 -242 -246 245 -372 267 269 156 123 138 -254 0
267 250 -150 -141 -266 156 -269 -242 270 -246 -337 162 249 138 -254 0
374 -202 141 -367 168 156 -147 -219 -186 -269 144 -250 -246 249 138 -254 122 0
-244 -225 -259 242 367 -246 147 -168 -372 156 144 -176 269 138 -254 122 0
-166 267 -256 -176 -242 -123 144 -246 -259 -168 -255 138 -254 0
-243 123 -246 242 150 -168 367 -147 156 -259 138 -254 0
-246 162 168 144 141 150 261 121 -219 269 -367 -272 156 -259 270 -372 -386 249 264 -331 247 0
-374 126 -176 393 144 -242 -256 261 -272 147 141 156 258 243 -259 270 267 -246 162 138 122 0
337 267 144 150 -141 156 -269 -324 -242 270 -246 250 162 249 138 -254 153 0
337 267 -242 144 -141 -266 -259 156 -324 150 270 -246 250 162 249 138 -254 153 0
-242 267 -246 -255 -231 -259 -168 -256 156 -176 144 138 -254 0
-385 123 159 156 243 141 100 144 269 -263 -259 261 252 -242 -270 -372 -246 162 138 -254 0
123 -121 159 -258 242 168 -270 156 -250 141 -267 -246 162 138 -254 0
-324 267 -374 -261 168 147 144 -263 243 141 156 -269 259 -242 270 -246 250 162 249 138 -254 0
-267 162 -250 -372 269 -246 249 138 -254 247 0
-267 159 -270 -372 -250 168 269 -246 162 138 -254 247 0
250 -372 -261 -259 156 269 150 -242 -246 162 138 -254 122 0
-261 156 -259 -372 267 -144 -242 269 -246 250 162 138 -254 122 0
-385 261 159 156 252 144 168 -242 -232 141 269 -270 -372 -246 162 138 -254 0
372 -333 -168 -176 224 147 144 -246 113 -367 -225 267 -180 264 -254 247 0
224 -176 144 -219 -333 147 113 -168 -246 372 -367 -225 267 -180 264 -331 247 0
-261 -256 -259 64 252 -232 -150 245 -385 168 267 144 -269 -242 -270 -246 250 162 138 -254 122 0
267 168 -269 242 -367 250 144 156 -261 141 147 -270 -372 -246 -252 162 159 138 -254 122 0
250 267 144 147 374 412 168 -269 -195 -242 270 -246 -243 162 249 138 -254 153 0
126 156 -243 367 -125 144 261 -269 -374 150 -195 242 -260 -246 162 138 -254 0
-246 144 -374 242 156 147 -372 -180 270 249 138 -254 247 0
374 -372 144 242 156 -246 147 -180 270 249 138 -254 247 0
-144 126 -374 242 156 147 -372 -180 270 -246 -162 138 -254 122 0
-269 168 144 -374 -242 141 150 147 270 -246 249 138 -254 122 0
-156 -372 -242 -246 147 374 270 249 138 -254 247 0
-111 144 -269 -252 -367 -246 374 208 141 150 147 270 168 249 138 -254 0
-252 -225 270 147 -246 -367 374 150 -219 -167 249 264 -331 0
-242 -372 -246 -147 374 270 249 138 -254 247 0
-243 126 -269 -374 242 -147 270 -246 -162 138 -254 122 0
242 -162 -374 -121 -147 270 -246 249 138 -254 122 0
-372 -250 -147 156 -246 270 -202 374 -367 249 138 -254 247 0
-374 126 150 270 -246 -261 -242 -235 -375 138 -254 0
-236 267 367 -144 147 -261 242 -374 270 -246 -202 249 138 -254 0
-246 372 147 -242 270 249 138 -254 247 0
372 -250 270 -246 -202 267 249 138 -254 247 0
-374 267 270 -246 -202 -255 -242 -250 372 126 138 -254 247 0
242 252 100 -186 -246 -263 374 249 138 -254 0
126 -156 -269 -374 242 -263 147 270 -246 -162 138 -254 0
-141 267 -259 -242 150 -263 156 270 -246 249 138 -254 0
-267 -246 156 -374 144 242 -263 147 -372 270 249 138 -254 247 0
-111 208 -180 263 -243 -367 -246 -137 374 -269 144 150 147 -195 270 168 249 -136 -254 153 0
-374 126 -263 252 -269 -224 -267 -242 141 150 147 270 -246 100 138 -254 0
-123 168 150 374 -242 -269 156 144 141 270 -246 249 138 -254 122 0
126 -374 144 150 -269 232 367 242 156 147 270 -246 168 138 -254 153 0
126 -374 -263 144 150 -140 243 -259 141 -267 -269 367 242 156 147 270 -246 168 138 -254 153 0
-144 -162 243 -226 -269 -374 -259 393 -242 156 270 -246 249 138 -254 122 0
-226 100 -242 252 -269 -224 -374 267 141 150 270 -246 249 138 -254 122 0
-123 -373 141 -263 -140 243 252 -269 -246 374 -115 156 144 270 100 249 0
244 100 -140 -263 252 243 -269 -246 374 208 141 270 -370 249 0
-234 126 -150 393 -374 -259 -137 144 -121 141 -242 156 147 270 -246 -162 256 138 122 0
126 -374 242 -141 144 156 147 -372 270 -246 -162 138 -254 122 0
-324 267 208 244 -150 -259 272 156 -141 -242 270 -246 250 162 249 138 247 0
126 -374 -259 -192 -242 -147 150 -263 -155 -232 -141 -260 -246 138 -254 0
-141 -225 242 150 -367 -156 266 168 -246 -263 144 138 -254 0
-385 -226 -232 -141 -242 267 270 -246 249 138 -254 0
74 -374 -195 123 -393 242 156 -260 -246 -162 -158 138 -254 0
-267 -246 144 -374 -259 242 156 147 -372 270 249 138 -254 247 0
-267 242 -219 144 -246 -259 374 156 147 -372 -186 -162 249 138 -254 122 0
256 -246 147 144 141 156 -242 -372 270 249 138 -254 247 0
126 -374 150 -263 168 -195 267 242 147 -180 270 -246 -243 138 -254 0
-234 -243 -259 -367 150 156 -195 -219 -386 -246 264 -331 0
374 -367 147 -225 150 -219 -195 -246 -243 -180 270 249 264 -331 0
-243 168 -192 -263 150 377 -259 -195 242 156 270 -246 249 138 -254 0
-246 121 113 -242 -374 -252 -260 249 138 -254 247 0
-324 267 -242 168 147 -221 -256 -333 144 -374 243 -263 270 -246 249 -194 0
74 -374 141 123 140 242 156 -260 -246 -162 -158 138 -254 0
-246 -176 29 252 100 244 -256 -263 -192 208 270 249 0
-117 -115 393 -269 245 243 252 244 -246 374 -146 144 208 141 209 270 168 249 122 0
-267 168 150 -140 144 -263 141 -259 -374 -269 242 156 147 270 -246 249 138 -254 153 0
-324 -246 156 -242 -263 -141 -147 -259 150 270 249 138 -254 0
-250 267 -242 -156 367 270 -246 -202 -372 168 249 138 -254 122 0
-370 -374 267 -242 270 -246 -141 126 138 -254 0
126 -374 -370 267 270 -246 -156 -242 138 -254 0
-374 126 267 150 -242 270 -246 -370 138 -254 0
-248 -246 -263 -242 147 100 252 156 269 267 -374 -372 270 249 138 0
-370 374 100 -263 252 267 270 -246 249 0
-370 267 -263 -192 374 100 252 270 -246 249 0
-410 -246 -155 -259 -147 248 272 -144 -374 -192 156 252 270 249 0
252 -372 -263 -167 -186 -246 374 -258 249 0
-226 267 144 252 -224 -263 141 -146 243 118 100 -232 -140 156 -155 -269 270 -246 249 0
-410 -263 -192 252 -226 100 267 -232 270 -246 249 0
-374 399 270 -246 147 150 -245 -261 -177 -235 -375 0
-375 -168 267 150 -242 -259 144 -261 -155 248 -246 -270 -269 250 -236 -202 159 138 -254 211 0
-250 -150 267 -144 -269 245 65 -183 39 -242 -146 209 -155 168 -232 270 -246 -202 -137 243 249 153 0
-374 126 125 -246 150 156 -375 -248 -261 -183 -235 0
-256 252 -263 326 -246 -259 374 367 156 144 100 249 138 -254 0
-324 -246 -263 168 144 -245 147 -256 -242 270 249 -194 0
-410 267 150 -232 -242 -374 123 -226 -155 270 -246 249 138 -254 0
-231 372 141 -246 -202 -243 -182 -259 156 -168 -250 247 0
-374 -372 411 -231 -337 270 -246 367 150 -259 242 156 121 126 138 -254 0
267 -261 -242 -176 -256 144 168 -375 156 259 -269 -270 -246 250 162 159 138 -254 153 0
-144 267 -242 -375 168 -261 156 259 -269 -270 -246 250 162 159 138 -254 153 0
-250 168 263 144 150 141 259 -374 -269 242 156 147 267 270 -246 -180 249 138 -254 122 0
-176 -140 144 243 168 267 -256 -255 147 -374 -263 -192 -242 270 -246 249 -194 0
-381 -333 -221 168 144 -242 147 267 -374 -263 -252 243 270 -246 249 -194 0
-374 126 270 -246 367 147 144 -176 -381 -259 242 -148 156 267 138 -254 0
240 -374 377 150 267 168 367 -14 147 -252 242 270 -246 126 205 -254 0
-244 126 156 -125 -147 367 144 -374 -255 123 242 -260 -246 138 -254 0
-244 123 -260 -246 156 144 111 242 -125 150 138 -254 0
144 -111 255 141 -252 -269 -386 -246 156 -167 150 270 249 -254 0
-375 267 -324 337 147 -232 144 -259 -243 263 374 156 -140 -242 270 -246 162 249 138 -254 153 0
-246 372 -255 -140 -242 243 270 249 138 -254 247 0
126 -374 368 100 243 252 -263 -260 -246 0
144 168 256 -155 -269 259 -140 243 -226 118 141 252 -146 156 147 270 -246 249 122 0
-234 126 393 256 -232 -226 -121 -374 -259 243 144 252 141 -155 -260 -246 -162 -150 122 0
256 -162 -140 -121 -374 -150 144 259 141 -242 156 147 270 -246 249 138 122 0
256 -162 393 -259 -137 144 -150 141 -242 156 147 -372 270 -246 249 138 247 0
-158 74 255 -269 -374 242 -147 -260 -246 -162 -252 138 -254 0
-252 123 269 -246 -147 168 156 -141 242 -372 138 -254 122 0
372 -267 269 -242 270 -246 -202 156 -150 -250 249 138 247 0
168 -250 156 144 -367 -147 -246 -202 374 270 141 -269 249 138 -254 122 0
-243 267 156 -263 147 -374 252 100 393 -219 -259 -367 270 -246 249 264 -331 0
-111 -248 144 -269 -267 -252 -367 -246 374 156 147 270 -162 249 -136 -254 0
-141 -242 -263 252 -259 269 -219 156 -246 -162 138 -254 247 0
-111 -248 -267 -269 144 -246 374 242 156 147 270 -162 249 138 -254 122 0
-263 -225 -244 252 242 -259 367 156 -162 -246 147 138 -254 0
-176 -242 -246 -263 -141 156 168 267 144 -256 -259 138 -254 0
-252 242 147 -243 168 -246 -195 269 -144 367 -225 -372 138 -254 0
-259 -255 -263 252 -140 -144 -242 -195 -219 156 -246 -162 138 -254 0
-252 -255 -246 267 168 -259 156 -144 -242 138 -254 0
-259 -225 242 -246 -263 367 141 -255 147 156 -144 168 138 -254 0
252 242 -111 141 -246 -202 -269 258 100 156 144 -270 -250 -263 126 138 -254 153 0
242 147 144 150 -248 -269 252 -267 156 -263 -246 -270 100 159 138 -254 153 0
252 -225 242 269 -246 147 267 -231 100 156 -259 -367 -372 -263 138 -254 247 0
-252 -156 -367 -269 -225 -246 147 -270 -162 159 138 -254 211 0
-244 -367 147 252 -374 -243 -195 100 144 -219 267 -263 270 -246 249 264 0
367 -225 168 -195 -252 -263 242 -246 147 -243 144 -256 138 -254 0
267 252 242 -263 -246 -202 100 -156 -270 367 -250 147 -372 159 138 -254 211 0
-252 -141 147 168 -225 372 -242 -246 138 -254 247 0
-225 -252 150 144 115 168 -367 -246 147 264 -254 0
-243 -225 -195 -367 168 150 -246 -180 147 -263 264 -254 0
-221 -225 -333 -252 -367 243 -246 150 147 -167 264 -254 0
123 -141 -372 269 -259 267 -146 -246 -242 -263 252 100 216 39 -226 138 -254 0
-256 242 -246 -252 -259 168 -245 147 156 144 -148 -141 138 -254 0
-375 162 252 -374 -140 -147 -266 -263 -192 -248 243 141 -155 -269 -150 -242 270 -246 249 138 0
-139 -256 156 252 -141 100 -155 -259 -263 -246 -224 248 0
168 144 -269 156 -225 -246 147 -202 258 -141 -270 -250 -367 126 138 -254 153 0
374 -250 147 -144 -141 -225 -246 270 -202 -367 249 264 -254 0
-250 -202 -367 -246 -372 -144 269 138 -254 0
-141 -242 267 245 150 144 -246 269 -219 156 147 249 138 -254 247 0
-168 -261 147 258 -246 -202 367 150 -236 144 156 -270 -269 242 -180 267 126 138 -254 153 0
-168 -261 147 -269 -246 -202 367 150 -236 156 144 -270 242 -259 -180 267 159 138 -254 211 0
156 144 168 258 -269 242 -246 -202 150 -270 -250 367 159 138 -254 153 0
-375 -261 168 144 367 269 -246 -202 150 141 156 242 -270 -372 -259 159 138 -254 122 0
-374 126 -246 -202 270 -219 150 -367 -250 264 -331 0
144 242 159 150 367 -372 168 156 -270 269 -250 -246 -202 138 -254 122 0
-382 -250 144 -246 147 -381 150 -202 0
144 -370 -246 -202 -146 263 150 242 168 39 367 -270 -269 -250 267 -137 159 264 205 -172 153 0
-242 -162 156 -258 150 144 -259 -246 -141 -256 -176 367 324 -182 138 -254 247 0
-242 -258 -121 168 -246 -202 -270 141 -250 156 -267 123 159 138 0
372 -250 144 156 259 168 242 -270 -246 -202 150 -257 -111 159 138 -254 247 0
-156 267 -102 147 -246 -202 263 168 -270 -372 -250 367 -225 159 138 -254 122 0
-225 126 147 -269 168 156 267 -270 -250 -246 -202 367 138 -254 122 0
-225 267 -242 147 -269 144 168 156 -270 -250 -246 -202 126 138 -254 122 0
-144 -225 168 -269 -246 -202 -263 -226 141 156 -270 -250 -367 159 264 -254 153 0
-242 168 267 147 -269 -246 -202 156 -270 -250 -144 -225 159 138 -254 122 0
-225 -231 -195 156 150 367 -246 147 -243 -259 -180 242 138 -254 0
150 156 267 -140 -246 -202 258 147 -219 -255 243 -270 -250 -367 144 159 138 -254 153 0
224 -176 -259 147 144 -141 -246 -14 367 -245 123 156 242 205 -254 0
-375 -168 -225 -269 367 242 144 156 -261 -150 -246 -270 -202 126 138 -254 122 0
-144 -225 159 -236 156 -261 367 242 -270 -372 -150 -246 -202 138 -254 122 0
242 -225 159 367 147 269 -141 168 144 156 -270 -372 -250 -246 -202 138 -254 122 0
-202 -141 156 -144 147 168 -225 -269 -246 -270 -250 -367 159 264 -254 153 0
-263 -367 -144 168 -250 -226 -246 -225 -219 -202 264 -254 0
-219 -367 -202 159 -270 168 372 -250 -246 -147 138 -254 247 0
126 -374 -243 259 144 -269 242 141 168 156 367 -260 -250 -246 -202 138 -254 122 0
-367 -333 -225 267 -202 -219 147 156 -259 113 -231 -250 372 -246 264 -254 247 0
-226 267 -246 -263 266 -259 156 144 -250 252 -202 168 -367 138 -254 0
123 267 -246 -202 269 -102 -232 -259 242 144 141 -370 168 -231 367 -270 -372 -250 263 -225 159 138 -254 0
-202 -232 209 245 -102 263 242 144 141 267 269 -155 168 -225 -246 -270 -372 -250 367 -259 159 138 -254 247 0
-183 -232 209 141 267 245 -155 -246 -202 -242 269 65 243 168 -224 -270 -272 -259 -250 -372 -137 159 247 0
-248 255 159 141 144 -140 168 242 -270 156 372 -250 -246 -202 138 -254 247 0
-267 123 159 156 -141 242 -270 168 -250 -121 -258 -246 -202 138 -254 0
372 -225 -202 -219 -367 -141 -250 147 -246 264 -254 122 0
255 168 -111 393 159 144 242 -270 156 372 -250 -246 -202 138 -254 247 0
-267 -156 159 269 -270 242 -250 168 372 -246 -202 138 -254 247 0
-267 -250 269 156 141 121 168 -270 -246 -202 -372 208 -248 243 159 138 -254 247 0
-202 -267 -270 372 -250 242 269 -246 249 138 -254 247 0
-267 242 -121 -246 -202 -270 -258 -250 168 141 144 159 138 -254 0
255 -225 -246 147 -202 -219 168 -270 -367 144 -250 372 159 138 -254 247 0
267 159 -270 168 372 -250 147 -246 -202 138 -254 247 0
267 -242 159 16 -270 144 372 -250 -150 -246 -202 138 -172 247 0
-225 372 156 -219 147 168 -250 -367 -270 -246 -202 144 259 159 138 -254 247 0
372 -250 -202 -219 -144 147 -367 -225 -246 264 -331 122 0
372 -250 269 141 156 168 242 -270 -246 -202 144 -267 -244 159 138 -254 247 0
372 -244 -202 -259 156 -250 -141 -182 -231 -246 247 0
-382 243 -385 -246 147 368 150 156 0
-121 -267 159 -258 242 -270 -156 -250 168 141 -246 -202 138 -254 0
168 -225 159 147 -367 -372 269 -270 144 -250 -246 -202 138 -254 0
156 267 -225 147 269 144 -246 -202 16 -270 -372 -250 168 -242 159 138 -254 247 0
-242 267 -225 147 269 -246 -202 16 156 -270 -372 -250 168 -144 138 -254 122 0
-375 -261 -180 147 168 -269 144 367 -17 -246 -243 150 -195 242 -270 -225 159 138 -254 153 0
-225 -250 367 -246 -202 147 144 -141 242 -176 -381 138 -254 0
-382 -367 -202 -226 -333 168 113 141 -246 -263 -250 264 -254 0
-382 -367 168 258 -269 156 144 147 -148 -246 -202 -270 -250 256 126 138 -254 153 0
-382 -367 168 -269 144 147 -156 -246 -202 -270 -250 256 159 138 -254 153 0
-202 -382 -156 -269 144 147 168 -141 -246 -270 -250 -367 159 264 -254 153 0
-382 242 -111 -141 -246 -202 -269 258 144 147 168 156 -139 -270 -250 256 126 138 -254 153 0
-242 168 -246 -202 -156 -270 -372 -250 147 267 159 138 -254 122 0
372 168 159 -270 -250 267 -246 -257 -202 138 -254 247 0
-202 372 -250 267 -246 -257 249 138 -254 247 0
-255 269 -202 141 156 242 372 -259 -144 -250 -246 138 -254 247 0
372 159 -270 267 -250 367 -246 -202 138 -254 247 0
372 267 -367 -255 -259 -250 156 -202 147 -246 138 -254 247 0
-144 -245 159 242 156 -269 147 -263 168 141 367 -270 -250 -246 -202 138 -254 153 0
-245 -381 159 168 -269 144 266 147 156 141 -367 -270 -250 -246 -202 138 -254 122 0
-242 377 -246 -202 259 -144 -269 150 -375 156 -261 -245 -270 -240 159 138 -254 153 0
-381 -382 144 -246 -180 147 150 -243 -195 0
367 -382 -176 150 -255 242 -140 -246 -180 147 -256 144 138 -254 0
156 144 -263 367 -246 -243 258 -195 150 -270 168 159 138 -254 153 0
-243 367 242 -259 150 -263 -195 168 -246 156 138 -254 0
-140 -255 -155 -242 -232 -259 -246 147 -256 -385 144 -245 138 0
-245 -176 -180 -255 147 -140 -256 367 144 150 -246 138 -254 0
-180 -382 -243 -195 150 -385 -246 147 156 0
367 -195 -140 -243 -255 -250 -180 39 267 -256 144 -176 150 -246 147 138 -254 0
-263 -393 -246 -219 -144 242 -259 168 156 -195 138 -254 0
156 144 -263 -111 242 -155 -246 -243 258 -195 150 -270 168 126 138 -254 153 0
372 -252 -167 -219 -246 147 -367 150 -225 264 -331 247 0
-226 -382 -367 -167 168 -263 252 -246 -254 0
263 -243 -111 -367 -246 -147 -270 -162 159 -136 -254 247 0
244 252 -111 -367 -246 -263 141 144 -269 100 243 -140 -270 159 138 -254 211 0
-263 252 144 367 258 147 242 100 -225 -246 -202 -270 -250 156 159 138 -254 153 0
-269 -263 -246 367 243 -147 -270 -162 159 -185 74 138 -254 122 0
372 119 141 261 156 268 246 -252 -219 168 -367 -270 -371 -336 162 159 264 -331 247 0
-176 115 -140 144 419 -371 375 -336 250 268 -242 113 -333 162 138 -254 0
250 375 -336 252 -227 -371 100 268 -263 419 0
-374 419 -140 209 246 245 -255 267 243 270 118 -257 126 0
419 -371 -144 -227 268 -336 -162 0
-377 -336 268 -227 419 -371 -263 0
-373 -370 419 -371 267 268 -259 -336 0
-375 -235 -261 -154 -156 0
-377 -263 -154 -156 -372 -258 0
-117 -115 -255 -154 243 -156 147 -140 -368 -270 -258 -268 159 247 0
-141 252 -257 246 119 -156 -258 -263 -372 0
74 -374 -140 246 -144 -255 243 -257 -260 119 -162 -158 0
-156 -162 119 -336 -371 0
-267 -140 -219 -367 168 121 141 119 243 -270 263 269 246 159 247 0
156 -168 -219 144 -259 -246 -180 147 -367 261 372 -270 267 162 159 138 -254 247 0
-367 147 150 242 -263 267 -259 168 156 -180 -255 -246 -195 138 -254 0
367 -225 150 -246 242 -180 147 -263 -243 168 -195 138 -254 0
-225 -243 -246 -263 242 -180 147 156 -259 -195 267 168 150 138 -254 0
-243 -195 -225 -367 147 -219 372 150 -246 -180 264 -331 247 0
-52 -232 268 -336 246 419 243 -385 -221 -333 0
-232 267 209 -259 -242 -155 268 -257 245 -227 -140 -52 246 46 210 269 -243 138 247 0
-371 -225 -144 250 156 -261 246 -242 -270 -372 -227 -257 162 159 138 -172 122 0
-234 -244 -242 -386 -168 113 -333 268 -227 -336 -371 138 -254 0
375 -231 156 250 -259 268 -140 -336 -227 -371 -242 -243 162 138 0
-371 141 -242 113 259 -227 115 -336 144 375 156 268 168 -270 250 -269 162 159 138 -254 153 0
375 250 268 -227 168 -336 -371 141 -242 -243 -263 162 138 -172 0
261 -371 -242 -195 168 -140 156 -227 268 -243 147 -270 372 267 -336 162 159 138 247 0
-141 -147 -227 -371 268 -336 0
-371 -225 216 -336 168 144 147 -219 -243 268 246 261 -227 -367 -270 372 -195 162 159 264 -331 247 0
-234 -227 -140 -259 -336 -243 -386 -371 268 -231 156 -242 138 0
-147 -156 -371 -227 268 -336 0
-144 -156 -371 -227 268 -336 0
-374 -227 -233 -243 -371 -336 268 -242 270 -140 138 0
-374 -158 74 -263 377 -140 367 259 141 -336 268 -267 144 242 156 147 -269 270 -371 168 -227 138 -254 0
-234 -231 -155 -386 -255 120 -227 -140 -259 -371 -242 243 -257 138 0
-374 -245 -177 -227 -233 -371 268 270 -336 0
-145 -147 -371 -227 268 -336 0
-374 -245 -233 115 243 -381 -333 -227 -221 268 246 144 -242 147 -336 270 -194 0
-374 -244 268 -175 -233 -227 -371 270 -336 0
-234 243 -386 268 -336 -227 -219 113 -140 242 -371 -333 264 11 205 -331 0
-234 -371 -367 168 156 144 259 -250 -269 -219 268 -386 -227 -202 -336 263 -137 264 -254 122 0
-232 -231 -227 -242 -263 -259 -243 -371 252 100 -140 268 -336 138 0
-370 -252 -225 268 -336 -227 168 -371 -242 -194 0
-367 -336 268 144 -219 -244 168 -227 -371 -252 264 -331 0
-263 -225 -257 -256 -242 -227 168 144 -156 246 -371 -255 138 -254 0
-232 -385 -371 -333 113 -367 -227 -219 168 -195 -263 268 -336 264 -331 0
-371 -227 -336 -243 -367 268 168 -252 -219 -195 264 -331 0
-375 -235 -202 -336 -259 367 248 111 -261 -371 242 -227 268 138 -254 0
115 -336 -243 -263 141 -227 144 168 268 -242 -371 138 -254 0
-141 -162 -17 242 246 -219 -227 138 -254 0
-255 -225 -257 243 -140 -227 -202 147 -250 242 367 246 138 -254 0
-419 -227 144 -244 -242 -194 0
-202 -144 259 147 -225 -269 242 156 -227 246 -270 -250 367 -257 159 138 -254 153 0
-367 -243 -227 268 -336 -248 156 141 -219 -371 264 -331 0
-407 -226 -257 46 -227 210 246 -141 -162 0
-227 -371 -144 -336 -162 0
-373 -371 121 -231 268 -259 -420 -227 -336 0
-373 -371 -372 -231 -259 -336 268 -227 269 121 0
-224 -367 268 -336 -226 -243 -225 -381 141 -385 -219 156 -227 -371 264 -331 0
-232 -385 147 -227 -52 -219 -367 156 -250 268 246 -381 -202 144 -336 -225 264 -331 0
248 269 242 -372 -336 121 -227 367 268 -371 -259 138 -254 122 0
-373 -231 -227 -371 -243 -242 -259 -140 268 -336 138 0
-244 -242 -372 121 -227 144 268 -336 269 -371 -194 0
-267 -231 144 -372 141 367 -336 242 -270 121 268 246 -250 156 -227 -202 269 159 138 -254 0
-227 -248 -242 121 -372 269 268 -371 -336 -155 138 0
-377 -336 -263 -371 -242 -155 268 -227 -248 138 0
-232 -385 243 -226 -333 -225 268 -336 -371 -221 -227 0
-373 -155 269 268 121 -371 -259 -227 -372 -336 122 0
-377 -140 141 266 257 144 -242 269 -270 -372 261 159 138 122 0
-377 121 141 -140 -146 257 -242 269 -270 -372 261 159 138 0
-377 261 -115 144 -270 257 162 159 0
261 372 256 144 393 270 168 -242 -377 257 162 249 138 247 0
-374 -239 -377 -367 270 -219 -185 264 -331 0
-374 -239 -242 -244 270 144 -377 126 -194 0
-374 126 -263 -377 -375 -261 270 -235 0
-374 -239 270 -233 -370 -377 -225 0
-225 -239 -370 -219 -367 -377 264 -331 0
-239 -377 -141 -156 0
126 -377 -248 -374 270 -242 -155 -239 138 0
-374 -185 -263 113 -140 -333 243 -239 -219 -137 242 270 -377 264 205 -331 0
372 -377 156 263 141 144 147 -242 -243 270 249 138 -254 247 0
-239 -375 -263 -377 -261 -235 267 -370 0
-377 -239 267 -370 -227 -371 0
-377 372 -255 -140 269 -263 -182 243 247 0
113 -263 367 243 -137 -377 -333 -140 242 264 205 -172 0
-370 267 -263 -377 100 -246 0
-115 -377 -256 -263 0
177 -250 -242 147 -202 -194 0
267 -226 119 252 -141 246 -263 -257 323 -162 0
368 243 323 -257 371 246 0
-148 -374 -233 -150 270 0
-371 -367 144 168 -148 250 -219 -269 -261 141 -252 268 242 -270 -149 -257 162 159 264 138 -331 211 0
393 261 168 -269 144 156 -225 -246 242 -270 267 162 159 138 -254 153 0
250 257 -270 -121 393 -168 -261 -242 -258 -372 162 159 138 -254 122 0
393 250 270 168 -242 147 162 249 138 -254 247 0
261 372 -242 168 270 147 141 393 162 249 138 -254 247 0
256 168 -374 246 144 -259 141 -242 156 147 -372 -257 270 393 249 138 122 0
256 168 374 246 144 -259 141 -242 156 147 -372 -257 270 393 249 138 247 0
256 168 267 374 246 -259 141 -242 156 147 -372 -257 270 393 249 138 122 0
-125 261 -374 367 168 147 -144 -255 -269 -245 156 -246 242 270 162 249 138 -254 153 0
-125 -269 147 168 144 141 -245 367 -252 -137 -17 -219 261 -246 -374 242 -260 162 126 264 205 -172 0
-125 246 -140 168 -195 371 -255 261 -269 156 -374 -242 270 -257 249 138 153 0
-125 261 -246 367 168 147 150 -245 -374 156 -269 242 -260 162 126 138 -254 153 0
-125 261 -242 -147 371 -374 168 156 246 -269 270 -257 162 249 138 -172 122 0
-125 -192 259 -242 168 147 -263 -374 -140 -269 141 -246 270 250 267 162 249 138 0
-125 -269 144 -266 141 156 -242 -374 -140 -261 270 250 257 162 249 138 153 0
261 -125 243 -224 -374 144 -140 141 -269 -260 257 162 126 -181 0
162 249 138 -254 247 0
270 249 138 -254 247 0
147 249 138 -254 247 0
-243 249 138 -254 247 0
369 -393 -263 168 -176 242 144 -17 -195 -137 -219 264 205 -331 0
-329 -326 275 -284 255 263 -167 207 216 -125 213 0
-79 162 -119 -141 -147 261 -371 -248 -269 156 246 -242 270 -257 125 249 138 153 0
-231 250 -243 -242 125 -261 156 -140 -259 -386 326 -79 162 249 138 0
250 257 144 -168 -266 125 -242 -140 -261 -269 -147 270 -386 -79 162 249 138 153 0
372 -123 242 -259 269 138 -254 247 0
-242 -381 -246 -195 -123 144 -176 150 -259 113 138 -254 0
412 -373 -155 65 -202 269 -261 -259 121 -235 -372 0
65 374 -373 -192 156 -186 -183 144 -263 -242 258 252 100 -137 -250 257 -202 249 153 0
65 -183 -269 258 -263 -232 -246 -202 -146 -242 39 144 141 -226 168 156 -270 -137 -250 243 267 126 153 0
243 -183 -202 -150 -263 -147 100 252 -255 -250 -259 156 -242 -246 -137 -232 65 0
261 260 -252 144 -219 268 -371 168 156 -149 -148 -367 372 -257 162 159 264 -331 247 0
242 -250 -259 267 141 -255 144 -269 -374 -263 156 147 -243 257 270 244 168 249 138 -254 0
-226 257 208 -269 147 -111 -367 270 244 249 -136 -254 211 0
-375 -261 -246 252 -140 243 266 -269 -367 168 -202 244 144 242 -270 -381 138 -254 122 0
252 377 168 -256 -263 -258 -176 244 144 257 247 0
-121 123 -270 246 -250 -258 -267 -257 162 159 138 -254 0
261 -242 141 -252 147 168 -137 -121 -258 -270 257 159 138 0
375 393 -121 147 144 141 250 -242 -261 -270 -258 257 162 159 138 -254 0
-252 375 -121 147 141 -242 250 168 -270 367 -258 -268 162 159 138 -172 0
250 375 -243 147 -121 156 -242 -140 -270 -372 -258 162 138 122 0
-375 242 -121 269 -270 367 -372 257 162 159 138 -254 247 0
-267 242 -246 168 -121 -270 -258 252 -137 -224 159 138 -254 0
-267 -266 252 243 144 -121 168 -270 -258 141 159 0
-236 -258 -121 -255 -387 243 0
-121 -258 123 156 -250 -202 -242 -257 246 138 0
-232 -121 -385 -258 242 138 -254 0
-239 252 -258 -263 -121 246 -257 0
-337 -266 263 -269 144 168 -270 159 0
-337 -242 147 168 -269 -263 -246 -374 144 -259 -252 243 261 -140 156 270 267 249 138 0
267 250 -269 168 144 147 -263 -259 141 243 156 -246 -242 270 374 -337 162 249 138 -254 0
-337 250 -261 -225 -231 -146 -232 -272 -259 243 144 -140 141 -269 -246 -242 270 374 -202 249 -194 0
-337 -144 121 -168 -372 0
374 -337 -269 261 -259 263 144 243 141 -150 156 -246 -242 270 267 162 249 138 -254 122 0
-374 -337 270 -202 -269 263 168 242 256 156 267 141 367 -250 118 -226 126 138 -254 122 0
-420 -245 121 -242 -146 -194 0
-124 -377 144 -263 -176 242 -239 141 121 -372 -137 -420 367 257 156 -270 159 264 205 -172 -181 0
-182 267 -162 -246 -146 245 252 -258 -263 -156 247 0
-141 -252 -257 -259 -162 -258 -182 156 -242 138 -254 247 0
-52 -385 268 -180 243 -255 46 210 -182 -232 -258 121 246 247 0
-267 257 -374 269 147 -242 270 -372 16 250 162 249 138 -172 247 0
250 257 144 -242 -374 156 -147 270 168 16 -269 162 249 138 -254 122 0
257 126 144 -242 -270 -147 16 -269 162 250 138 -254 122 0
250 257 144 267 -156 147 -242 270 168 16 -269 162 249 138 -254 122 0
-146 -395 -246 -149 -118 0
-144 -162 -257 -149 267 -371 -370 0
-225 -367 -226 -244 243 144 -232 267 -219 -259 -246 -333 -221 -149 118 264 -331 0
368 -248 246 -155 268 -148 269 -242 -61 243 -257 138 247 0
239 -377 -202 -261 -263 -375 0
239 -370 -377 100 -263 267 0
261 267 168 156 147 -374 144 -259 -269 -263 -256 -246 -192 270 242 162 249 138 -254 0
267 250 -242 -263 259 144 -150 141 156 -374 -246 -269 270 -192 -176 162 249 138 -254 0
126 -374 -141 -155 -263 -232 100 252 123 -147 -260 162 -192 0
-244 -374 -263 126 168 156 144 -141 242 123 -147 -260 367 162 -192 138 -254 0
369 -367 -192 -245 -263 144 -141 -176 -250 168 147 162 -254 0
-144 -242 -246 -255 -192 -263 374 -150 243 -140 270 267 249 -194 0
121 -236 -235 -261 -192 -372 367 -243 168 156 242 -248 269 -263 141 138 -254 0
-236 -235 168 367 -195 -243 -263 -192 -244 -372 242 269 121 144 -261 138 -254 0
-242 -257 -140 -186 246 374 -263 -243 -195 168 249 138 0
-250 -372 -242 -263 252 -186 -202 374 -137 269 249 0
-267 242 -219 -186 374 156 144 147 -372 -246 249 138 -254 247 0
-250 257 -263 65 156 243 141 -269 -373 -242 -183 252 -260 -186 -202 -137 100 374 249 0
-250 -245 -367 144 168 156 -269 -186 -246 -202 147 374 -141 249 138 -254 122 0
231 252 -258 -155 168 272 156 -259 247 0
242 156 -202 144 -141 263 -102 147 -258 168 -246 367 -270 -372 -250 -245 159 138 -254 122 0
141 168 144 156 242 263 -102 147 -202 269 -246 367 -270 -372 -250 -245 159 138 -254 122 0
-342 -276 -284 259 -176 256 -31 208 29 -272 261 156 162 0
-240 377 367 242 138 -254 0
113 -240 -140 377 243 -111 -254 0
207 250 -155 393 144 -259 -266 -324 -374 -232 -269 -242 270 263 162 249 138 122 0
39 40 -147 -141 0
-225 -370 -139 -141 0
-139 -250 242 -259 -246 156 147 168 -202 -245 -141 -263 138 -254 0
121 -372 -246 -367 -179 -219 269 264 -331 0
-313 -284 -266 261 337 321 -324 153 0
261 -242 156 144 246 269 260 -270 -372 267 -257 162 159 138 -254 247 0
-371 -225 144 -156 -393 -261 246 -242 -270 -372 250 -257 162 159 138 -172 153 0
-261 -242 -156 246 144 -270 -372 250 267 -257 162 159 138 -254 247 0
261 242 156 -246 144 -270 -372 -257 162 249 138 -254 247 0
261 242 168 -156 -246 144 -270 -372 267 162 159 138 -254 247 0
261 242 -156 -246 144 -270 -372 267 -180 162 159 138 -254 247 0
144 242 -367 261 147 246 156 -270 -372 267 -257 162 159 138 -254 247 0
144 -225 -367 250 -168 156 -261 242 -270 -150 162 159 138 -254 247 0
261 242 147 168 367 156 -269 246 144 -270 267 -257 162 159 138 -254 153 0
144 168 147 156 -367 -137 261 246 -269 -270 267 -257 162 159 138 -254 153 0
261 242 -147 168 144 156 367 246 -269 -270 -257 162 159 138 -254 153 0
261 168 -147 156 144 -137 -367 246 -269 -270 -257 162 159 138 -254 153 0
261 -367 -246 168 156 -147 144 260 -270 372 162 159 138 -254 247 0
261 -367 246 144 -219 156 168 260 -270 372 -257 162 159 264 -331 247 0
261 242 156 -168 367 -147 144 246 -269 -270 -257 162 159 138 -254 153 0
261 242 -156 168 147 367 -269 246 144 -270 267 -257 162 159 138 -254 153 0
261 242 168 367 156 147 246 144 -270 -372 267 -257 162 159 138 -254 247 0
261 242 -140 367 256 168 123 -259 156 269 -246 144 -270 -372 267 162 159 138 -254 0
144 -269 141 -374 168 -242 156 246 367 270 -250 -257 162 249 138 -254 122 0
367 -119 -269 168 -195 -147 144 261 246 242 -270 -257 162 159 138 -254 153 0
144 250 219 -259 -245 261 147 -186 -269 156 -246 242 374 -260 -150 162 249 138 -254 153 0
-225 -156 -246 168 144 261 -269 -367 242 -270 162 159 138 -254 153 0
144 261 -225 168 -269 -156 242 367 -246 -270 162 159 138 -254 153 0
144 261 168 -269 150 -242 -246 147 -270 267 162 159 138 -254 153 0
242 367 -147 144 -259 156 168 246 -269 -270 -250 -257 162 159 138 -254 122 0
250 257 -374 -147 270 367 -269 144 162 249 138 -254 122 0
367 257 374 -269 -147 270 144 261 162 249 138 -254 122 0
250 257 168 -147 374 -269 -261 270 367 258 144 162 249 138 -254 153 0
261 267 168 121 374 144 -242 269 -370 270 367 -372 162 249 138 -254 247 0
-252 261 -140 141 257 -381 168 -137 -242 269 -270 -372 144 159 138 0
250 257 267 -263 -242 -269 147 168 270 374 144 162 249 -194 -181 0
250 257 -261 147 168 270 -367 -269 144 162 249 138 -254 122 0
250 257 156 -245 -261 -252 147 168 270 -367 258 144 162 249 138 -254 153 0
250 257 -245 -261 141 147 168 270 -367 -269 144 162 249 138 -254 0
-324 263 -115 258 261 243 144 393 207 -368 162 122 0
372 257 -270 147 144 250 162 159 138 -254 247 0
261 144 168 -270 -147 372 257 162 159 138 -254 247 0
261 -166 324 243 -368 -140 -155 385 156 144 -115 -168 -232 260 -270 -224 -182 -258 162 159 247 0
-127 -261 -192 144 168 -263 123 -256 -242 156 -176 138 0
-381 261 147 156 -121 123 -140 141 144 -242 -258 -270 257 162 159 138 -254 0
372 126 -125 156 147 -239 -374 -242 257 270 144 168 -250 138 247 0
372 74 -125 156 263 147 -176 -374 -242 257 -260 144 168 -158 -250 138 247 0
-234 -244 144 113 168 -233 -219 -367 -195 270 -252 -333 264 -331 0
256 144 -140 259 -246 -150 141 -242 156 147 -372 270 -162 249 138 122 0
144 -250 -263 -183 243 252 65 -373 -246 -269 -242 141 156 100 270 -202 -137 374 249 0
123 144 -255 -140 141 252 -259 -244 377 111 -263 156 242 270 100 249 138 -254 0
-250 -337 270 -202 16 144 147 156 168 -246 -242 -269 267 249 138 -254 122 0
-374 126 270 -372 144 269 -242 -244 -194 0
-250 257 -258 -242 147 270 -202 156 168 144 -372 249 138 247 0
372 -367 144 -336 261 268 246 -248 -219 156 141 -270 -371 119 162 159 264 -331 247 0
-250 267 269 147 -246 168 156 270 -202 -372 144 -242 249 138 -254 247 0
257 375 -236 -270 -255 141 168 -266 269 -367 -372 156 144 250 159 138 -254 122 0
257 -242 168 -374 156 270 -202 258 144 -250 249 138 122 0
257 -242 -263 -256 -255 208 326 374 144 -195 -250 168 249 138 -254 -181 0
257 -242 147 -372 141 -258 270 -202 269 243 144 -250 249 -194 -181 0
-242 -250 -259 156 -140 243 369 270 -202 144 -255 249 138 0
144 156 -242 269 -243 367 -150 147 249 138 -254 247 0
-250 257 156 243 -255 147 -140 -367 270 -202 -269 144 -259 249 138 -254 122 0
144 -242 -259 245 -150 269 243 156 263 147 -270 -162 159 138 247 0
-162 243 -176 -150 267 -255 144 -259 -242 156 147 -256 138 0
-255 -245 -176 -162 -150 -259 144 -242 243 156 147 -256 138 0
267 367 144 156 -259 242 -243 -256 -176 -150 147 -162 138 -254 0
-314 -327 -325 342 168 0
-314 280 -329 -321 259 124 64 0
-314 -325 -321 342 168 0
-280 325 321 -276 156 0
261 267 393 -368 -370 248 243 -373 293 -259 -272 258 141 156 270 123 162 249 122 0
-272 261 -147 258 -155 248 -150 393 -368 -373 243 141 -259 156 293 270 162 249 122 0
-224 -381 162 -336 250 -227 -407 -226 -261 -371 268 0
-147 -381 -140 113 -246 -367 -224 -259 -168 156 -333 264 -254 0
-224 -381 147 -246 -255 -367 -168 -137 141 -140 156 -259 267 -225 -180 138 -254 0
267 -180 -246 -367 141 -259 -137 -225 147 -168 -255 156 144 -140 -176 -381 138 -254 0
-381 -252 156 144 168 261 -176 242 269 -270 367 -372 257 162 138 -254 122 0
126 -374 257 141 144 -219 -252 168 270 -269 -367 261 162 -381 264 -331 0
257 126 -219 147 -270 -269 -367 258 250 162 -381 138 -254 153 0
126 -374 270 168 144 257 -269 -147 242 367 261 162 -381 138 -254 153 0
257 267 168 -219 -141 147 -381 -256 -263 -270 -261 -367 258 250 162 159 138 -254 153 0
-374 126 -243 144 -381 -242 -140 270 -261 162 250 138 -254 0
372 -367 -250 144 -263 -167 -381 -176 162 -254 247 0
-381 -242 144 123 269 -259 156 -372 326 374 -176 249 138 -254 0
-252 -374 242 -195 377 270 -381 -263 -243 168 144 126 138 -254 0
126 -374 -140 -255 267 -381 -263 144 168 -252 377 147 242 270 -176 138 -254 0
-374 -252 -263 126 -140 267 -255 -381 144 147 242 270 168 -176 138 -254 0
-374 126 -224 246 -259 -146 118 267 -155 -242 270 -226 -257 -381 138 0
-381 -176 168 -372 144 -252 156 367 269 242 123 -259 138 -254 0
-176 -381 -167 -252 147 144 -385 -245 156 0
-381 -176 -259 168 156 -195 -140 -252 -255 269 123 144 -367 -372 138 -254 0
-245 -381 242 168 -252 -256 147 269 144 -372 138 -254 247 0
-252 -381 168 150 147 -111 -257 -176 -245 144 -254 0
-381 115 -252 269 -242 144 -195 243 -176 168 -255 138 247 0
-176 324 -381 -225 -182 -219 144 168 -367 372 147 -252 264 -331 247 0
-381 -252 -382 -243 168 -195 147 144 0
-381 -382 -246 168 242 377 -195 144 147 -243 266 -263 138 -254 0
-226 -381 -255 267 -150 -246 -263 -242 243 368 -156 138 -254 0
-221 -381 -224 252 -333 -263 243 100 0
126 263 144 242 -269 -250 141 -374 -147 270 -202 168 -381 367 257 138 -254 153 0
-221 -381 144 -150 243 -225 -333 -259 -176 -367 156 147 -162 -254 0
-381 -250 156 144 -385 -202 -242 138 0
-385 -381 -245 -195 -243 147 144 156 0
-245 -381 -367 156 -221 -385 243 -371 144 -333 147 -219 -227 268 -336 264 -331 0
-255 -176 121 119 -367 147 -245 150 144 -381 269 -372 243 264 -254 247 0
-176 -225 144 150 147 115 -111 -257 -259 -254 156 -381 0
-381 -385 156 -250 -202 141 -243 144 0
-381 -385 144 156 -382 -242 -226 -176 138 0
-381 117 -140 -257 144 -243 -119 147 -242 138 -254 0
-381 -385 -382 147 -176 -246 150 144 -232 0
-381 -140 121 144 -372 -242 -259 -243 156 269 -231 138 -254 0
-381 -255 -146 243 -176 144 -256 -245 269 -242 -194 247 0
-381 123 -242 -250 -372 -259 269 -258 156 144 -202 138 0
-381 -255 -242 -250 -372 243 -137 -258 -140 -202 269 144 0
-381 368 156 144 -176 -242 269 -372 121 -259 243 138 0
-226 -250 -381 141 -258 367 121 -176 267 39 243 -146 -256 -202 -372 156 -255 144 -259 264 138 -172 122 0
-382 -381 269 -259 147 144 242 156 123 -367 -146 -372 -255 -140 243 -176 138 -254 0
-381 -245 141 147 367 -176 -258 -250 269 242 -372 -255 -202 138 -254 0
-381 -250 -202 144 -382 147 -385 156 0
-336 -367 156 -243 -371 -225 -385 141 147 -219 144 -381 -227 268 264 -331 0
-224 -381 246 -226 252 267 100 -227 -263 115 0
-385 -176 -382 144 150 -232 -257 -111 -381 147 -254 0
-336 -367 -385 268 -252 -227 144 -371 -219 -381 168 156 264 -331 0
-52 -336 -242 65 -250 -232 -381 -231 268 121 245 -227 46 210 267 -259 -372 144 -146 246 -256 269 -176 -155 -194 0
-381 -252 246 -259 267 -256 -257 168 156 -226 144 -242 138 0
-137 -381 245 -146 -372 269 -252 267 -242 144 -256 168 -194 0
115 -381 -252 -242 267 -176 144 -140 -333 243 168 -226 113 -194 0
-385 113 144 -140 -381 -252 156 168 -367 -333 264 -254 0
-381 -224 377 100 -263 252 0
-381 245 -255 -242 267 -176 209 -146 144 150 -259 243 -219 156 -246 138 -254 0
-147 -255 250 -375 -140 -256 144 -176 -168 -242 -261 -259 162 138 -254 0
257 261 156 -242 -244 -381 263 168 374 121 144 269 326 367 -372 -176 249 138 -254 0
267 -261 258 147 144 168 156 242 -176 -256 272 -375 -270 367 257 162 159 138 -254 122 0
-374 -381 144 -176 -261 -242 168 -252 270 250 162 126 -194 0
-127 -261 -256 242 -176 147 144 -245 -167 272 367 138 -254 0
-127 -261 -256 144 -226 -242 123 156 267 -225 -176 138 0
-127 113 -192 -195 -140 -261 -256 -242 168 -176 144 -263 138 -254 0
-269 -176 -242 147 261 -263 -192 259 144 243 -140 141 156 -150 -246 -374 270 267 162 249 -194 0
367 224 144 -246 -245 147 156 -259 -255 -168 -140 -176 242 138 -254 0
-227 126 252 100 -263 -374 244 29 369 208 -336 268 270 246 -176 0
-375 242 -202 -140 156 -261 113 -256 144 141 -225 123 367 -176 -127 147 138 -254 0
-176 257 -242 144 -374 -192 156 270 -202 168 -250 258 249 138 122 0
-252 -374 -263 -195 -140 113 -259 242 -176 -381 -333 156 144 270 168 126 138 -254 0
-374 -221 270 -176 -233 -231 -381 -242 -333 -259 243 -226 156 -382 144 138 0
-374 126 -333 -176 144 156 -242 -259 252 243 100 -263 -192 369 377 270 -221 138 0
372 -176 -245 -243 -111 269 144 -195 150 263 147 -270 168 159 -254 247 0
-244 -245 144 -246 147 150 -176 0
-310 -327 -321 -342 259 -284 261 156 162 0
-142 -162 -144 -156 0
-142 -374 -233 -144 270 0
126 252 -263 -257 -374 -144 270 246 -142 0
-142 -225 -370 -144 0
-142 -239 -144 252 -226 168 -225 0
-142 -407 -144 -259 -226 -232 -231 0
-374 -244 -233 -367 -175 -219 270 264 -331 0
-175 -116 -245 147 0
-175 -244 121 -372 269 -219 -367 264 -331 0
-175 -244 268 -336 -219 -371 -367 -227 264 -331 0
372 257 -115 -242 168 270 -250 -202 -31 156 249 138 247 0
-369 -375 -261 -147 -256 0
-369 -375 -256 -261 257 -181 0
-369 -250 -256 100 -259 156 252 -263 -202 367 -192 138 -254 0
-369 -375 -261 -256 -246 0
-115 -368 261 -255 -232 243 -140 -150 -168 260 -258 162 159 247 0
-115 261 -377 243 -140 -263 -368 -246 -270 162 159 0
-115 261 257 243 144 -140 141 -269 -368 162 0
374 -115 245 243 -146 -261 39 -269 -140 141 147 270 100 252 257 162 249 138 -254 211 0
-115 256 263 -269 -267 144 168 153 0
-115 -267 -263 -232 -269 -259 -246 -141 -242 156 270 -162 249 138 -254 153 0
-115 267 -259 -141 208 -256 252 29 168 156 -242 -263 -246 138 -254 0
-115 -255 -256 -250 243 -140 267 147 367 -202 264 -194 205 -172 0
-115 -256 -202 156 -255 367 -250 -259 -140 243 264 138 -172 0
-115 -250 -192 -256 272 -255 141 367 252 -202 100 138 -254 0
257 -377 -263 144 -140 141 243 -115 -270 -368 159 0
257 126 -232 -155 156 242 -270 258 -115 138 -254 153 0
-115 -117 -269 263 267 -368 243 -146 393 245 141 209 270 249 122 0
-370 257 -115 39 -146 147 168 -270 263 159 0
-115 -242 -258 -202 168 141 243 -267 -270 -246 144 -250 -137 -368 372 159 247 0
-115 -232 -256 -257 246 -231 0
372 -242 168 147 -115 -270 -150 -246 -250 267 -202 159 138 247 0
257 162 147 141 168 -250 270 -269 249 138 -254 122 0
257 162 367 -374 -147 141 168 -250 270 258 249 138 -254 122 0
126 -374 257 141 147 -252 168 -250 270 -269 162 138 -254 211 0
372 -250 168 257 -270 162 159 138 -254 247 0
126 -245 -269 257 -125 -374 144 208 141 147 -263 367 270 242 168 -250 138 -254 0
257 -244 162 272 168 -375 144 242 -261 -270 156 367 258 159 138 -254 153 0
257 -225 -381 -141 -176 258 -252 147 -270 168 -250 -367 -202 159 264 -254 153 0
257 147 252 -367 156 -263 -269 -270 -162 159 -185 138 -254 122 0
-252 -263 -269 -156 257 147 -270 -162 159 -185 138 -254 122 0
257 147 367 252 -156 -263 -269 -270 -162 159 -185 138 -254 122 0
257 -252 -167 -367 -111 269 156 147 -270 -162 159 -136 -254 247 0
263 -266 257 -269 0
-202 257 156 141 -258 147 -270 243 -250 -372 -121 -242 159 138 122 0
-202 257 168 -176 -256 252 -242 147 -270 -255 -250 258 141 159 138 122 0
257 -252 -204 -367 269 245 -385 -219 156 147 249 138 -254 247 0
257 267 -146 -202 -242 252 -255 156 -140 243 209 -270 168 -250 245 258 159 138 153 0
257 -242 168 -141 -256 -176 252 -270 147 -250 -202 258 159 138 122 0
257 367 -141 -256 -176 147 -270 168 -250 -202 258 159 138 -254 122 0
257 -242 -372 252 -258 -270 147 -250 168 -202 -141 159 138 122 0
-244 147 -141 -258 257 367 -270 168 -250 -372 -202 156 159 138 -254 122 0
257 -367 147 -141 -258 -270 269 -250 168 -202 -372 159 138 -254 -181 0
-370 121 243 -372 257 -140 141 269 147 -270 -368 -266 159 0
-202 257 -176 144 156 243 -140 147 -255 -270 -256 -250 367 258 159 138 -254 122 0
257 -272 150 -269 -270 168 159 153 0
-202 257 -121 -140 -372 -258 147 269 -270 144 -250 367 243 -255 159 264 -194 205 -172 -181 0
321 267 -140 243 -266 245 -258 257 324 -156 209 -270 -162 159 247 0
-202 372 168 -270 -250 147 257 -242 159 138 -172 247 0
-202 372 147 168 -270 -250 156 257 -242 159 138 247 0
-202 372 147 168 -270 -250 -242 257 144 159 138 247 0
-202 372 147 156 -270 -250 141 257 144 159 138 -254 247 0
-202 372 156 -242 -270 -250 141 257 144 159 138 247 0
-202 372 141 -263 168 -270 -250 144 257 -111 159 -254 247 0
372 -111 144 156 141 -270 -250 -255 -202 257 159 138 -254 247 0
-202 372 147 168 270 -250 -144 257 -242 249 138 247 0
257 372 168 -270 -250 -147 156 -202 159 138 -254 247 0
-202 257 141 -256 -154 147 -255 -270 144 258 -250 367 -176 159 138 -254 122 0
-202 257 147 -258 -270 -372 141 -250 144 367 -154 159 138 -254 122 0
-202 369 -225 100 257 156 252 -263 144 -367 147 -270 258 -250 -226 -176 159 264 -254 153 0
126 -374 257 -147 -263 258 -260 -162 242 138 -254 122 0
-252 257 16 -242 156 147 -270 -162 159 -185 138 -172 247 0
257 372 168 -270 -250 -147 -202 -242 159 138 247 0
372 257 -263 -147 -374 -242 -140 270 -162 249 138 247 0
257 252 258 -202 -147 -270 168 -250 141 367 126 138 -254 122 0
-202 369 -137 257 252 258 -243 141 -367 -147 -270 100 144 -250 -263 -176 159 264 -254 153 0
255 -242 369 -121 -176 -245 -140 168 147 144 141 -258 -246 261 -270 159 -194 0
-252 255 156 -386 168 144 -261 -242 -235 -147 270 250 257 162 249 138 0
255 372 156 147 -374 -242 257 270 -162 249 138 247 0
255 -250 147 144 156 -263 374 -242 270 257 168 249 138 247 0
74 -374 372 147 -156 -252 -242 -268 -260 -162 255 -158 -194 247 0
255 256 393 -269 263 141 122 0
255 -176 367 141 -259 257 269 -252 -372 242 123 144 156 -270 168 159 138 -254 -181 0
252 -242 -202 144 -263 -258 141 255 -270 100 -137 -250 -372 257 377 159 -181 0
-158 74 -176 156 -125 263 147 -167 -242 -374 144 -260 255 168 372 -250 138 247 0
-226 -225 255 252 267 -269 -263 244 144 168 -246 -270 141 159 211 0
256 74 144 156 -125 263 -167 147 -242 -374 372 -260 168 -158 255 138 247 0
375 -225 159 141 -140 250 -269 -156 144 -261 246 -242 -270 -371 -257 162 -243 138 -254 153 0
375 -243 141 -367 -259 -246 150 -219 156 162 264 -331 0
372 261 159 141 144 168 -140 156 -242 260 -270 -246 162 -243 138 -254 247 0
-242 -243 -261 250 -263 -140 -246 -156 267 -150 162 138 0
261 242 367 -246 -243 -195 156 269 150 144 260 -372 162 159 138 -254 122 0
261 242 159 168 144 367 -195 269 246 156 -270 -372 267 -257 162 -243 138 -254 247 0
258 -168 -150 242 156 -243 -246 367 -270 -250 267 -202 159 138 -254 153 0
-224 -243 -246 -195 -259 -381 -147 -367 156 -168 264 -254 0
-250 -168 -243 367 -147 270 258 257 162 249 138 -254 153 0
-243 261 141 367 168 144 270 162 249 138 -254 247 0
-243 261 -242 156 141 -140 144 270 162 249 138 -254 247 0
-235 250 -232 -259 -242 115 -140 -243 -231 144 -261 162 138 -254 0
-381 250 162 -140 156 144 123 -261 -243 -259 -242 138 -254 0
115 -235 162 -242 -243 156 250 -231 144 -259 -261 -140 138 -254 0
-144 -168 242 156 147 -243 -270 -250 372 -202 138 -254 247 0
-244 -243 -225 -195 -367 147 -259 141 -168 144 156 -246 -254 0
-243 -259 -242 -374 246 -144 141 -140 156 -257 270 -162 249 138 0
-243 -225 385 -155 -195 -246 -224 -381 147 -367 -259 -168 267 -180 264 -254 0
-250 -225 147 -371 374 141 268 -227 270 -202 -336 -243 249 0
-250 -372 367 141 270 -202 -243 269 249 138 -254 0
-243 242 267 -259 369 -176 -374 144 156 147 -263 270 -162 249 138 -254 0
242 168 -140 -195 -255 -245 -374 147 -263 270 -243 249 138 -254 0
-422 -243 -245 147 -140 -233 0
377 74 -263 258 367 -125 -374 141 156 144 242 257 -260 -243 168 -158 138 -254 153 0
-423 374 -140 -261 -242 147 -225 -243 270 -202 249 138 0
-111 144 -269 -252 -243 374 -195 156 257 326 168 249 -254 122 0
-242 -250 -263 144 -256 208 326 -243 374 -195 168 249 138 -254 0
-374 126 -235 270 -243 -261 -242 -140 -375 138 0
-244 123 -147 -243 -150 367 -259 144 156 242 138 -254 0
-243 156 -147 -231 -259 -144 150 367 -246 242 138 -254 0
-150 156 -372 -176 -258 242 -257 -243 367 263 147 -270 -162 159 138 -254 122 0
-243 263 242 144 -155 -195 -372 -121 -176 -258 -246 367 156 -245 147 -270 168 159 138 -254 122 0
126 144 147 141 -270 -367 -250 -372 257 -202 -243 138 -254 122 0
-243 -256 144 -250 147 267 367 141 -202 138 -254 0
-250 257 147 -202 -243 270 367 141 144 -269 249 138 -254 211 0
-370 -250 141 -243 -367 -202 -219 -225 264 -331 0
126 -245 -195 147 156 144 -236 367 258 246 242 -270 -261 -257 -202 -243 138 -254 153 0
121 -375 -261 -202 -243 147 144 -195 242 269 -270 367 -372 257 156 159 138 -254 122 0
324 -176 -243 -162 144 -385 121 -245 156 147 -381 247 0
-243 -225 -250 -367 -219 141 147 372 -202 264 -331 247 0
-385 -250 -382 147 141 156 -243 -202 0
250 162 249 138 -254 247 0
270 162 249 138 -254 247 0
250 267 156 -374 -246 -242 269 -372 270 -150 162 249 138 -172 247 0
250 162 270 -257 249 138 -254 247 0
261 162 367 372 270 -257 249 138 -254 247 0
-269 250 147 168 270 -367 261 162 249 138 -254 247 0
261 257 168 -147 270 -367 -269 162 249 138 -254 122 0
261 257 -263 -219 168 -147 270 -367 -269 162 249 138 -254 -181 0
250 162 270 147 249 138 -254 247 0
261 257 -386 324 -242 -144 -141 168 -258 147 -245 270 -372 249 138 247 0
126 -374 250 -263 -255 267 168 -144 16 -242 -225 -261 270 147 162 138 -172 0
250 162 270 249 138 -254 247 0
-374 -144 250 -226 -140 267 -168 -255 243 -261 270 162 126 0
-324 267 141 156 -269 -246 -242 270 -150 250 -257 162 249 138 -254 122 0
-324 267 -259 141 156 -269 -246 -242 270 -150 250 -257 162 249 138 -254 122 0
250 267 -156 -246 -242 270 -269 -150 162 249 138 -254 122 0
-375 267 270 -156 374 -246 -150 269 -372 -242 162 249 138 -172 247 0
-245 -235 168 250 269 123 144 -259 -261 156 -246 -242 -270 -372 -150 162 159 138 -172 0
267 -235 250 123 269 -232 144 -259 -261 156 -246 -242 -270 -372 -150 168 162 159 138 -172 0
267 -242 -246 -156 -270 -372 -150 250 162 159 138 -254 122 0
250 -226 -261 -235 -367 -225 -141 -150 162 264 -254 0
-375 -168 -150 -367 -235 -261 -202 264 -254 0
-245 375 -246 250 -269 -236 156 -261 -144 242 -270 -248 -150 -202 138 -254 122 0
267 -261 -156 -246 242 -270 -372 -150 250 162 159 138 -254 247 0
250 267 -141 -261 156 -246 -242 270 -259 -150 162 249 138 -254 0
250 267 -374 -243 144 -263 141 156 -269 -246 -242 270 -259 -150 162 249 138 -254 0
250 267 393 -337 -144 141 156 -269 -246 -242 270 -259 -150 162 249 138 122 0
250 267 393 -374 -337 -144 207 -195 156 -269 -246 -242 270 -259 -150 162 249 138 122 0
250 267 393 -374 -144 -192 207 -195 156 258 -246 -242 270 -259 -150 162 249 138 122 0
-144 -225 -246 250 156 -261 -367 242 -270 -150 162 159 138 -254 247 0
372 267 156 147 168 -261 -246 367 -270 -150 -375 -144 -202 138 -254 247 0
-150 250 219 -245 261 147 -259 -186 156 -246 242 374 -260 -269 162 249 138 -254 122 0
126 -252 219 258 -269 -147 168 144 156 -261 242 -270 -150 162 250 138 -254 153 0
-375 -150 -412 -156 0
-225 168 147 -269 -141 -367 250 258 144 156 -261 -246 242 -270 -150 162 159 138 -254 153 0
261 242 374 147 -245 -259 -269 -186 -219 -246 -150 156 162 249 138 -254 122 0
126 -374 -168 242 -225 156 -246 367 270 -372 -150 -202 -250 138 -254 0
-261 -245 -246 147 258 -141 367 -150 168 144 156 -252 -375 242 -270 -202 159 138 -254 153 0
-225 267 144 245 -259 209 -137 -269 -367 -150 374 -246 261 270 156 162 249 264 -254 122 0
-225 267 156 144 -370 -252 -259 209 -269 -150 245 -367 -386 -246 -137 270 261 162 249 264 -254 0
261 -225 -246 168 144 -156 -150 242 367 -270 -372 162 159 138 -254 247 0
156 -261 -269 -225 242 367 -150 -259 -375 -168 -246 144 -270 -202 159 138 -254 211 0
121 -144 -150 269 -372 0
-225 -156 -150 -266 242 147 -252 168 367 -270 -372 -250 162 159 138 -254 211 0
-150 -168 -255 242 156 258 -246 367 -270 -250 267 -202 159 138 -254 153 0
121 -372 -150 269 -168 0
121 -372 -150 269 -156 0
-156 -168 -150 0
-370 -225 -168 -150 0
-144 156 -333 168 113 -259 -150 -195 -263 -367 -225 264 -254 0
-261 242 144 -269 258 -236 367 147 -150 156 -141 -246 168 -270 -225 -202 159 138 -254 153 0
-375 -168 -137 243 -261 242 -150 -255 -140 367 -202 264 205 -172 0
-374 126 270 147 242 367 -150 -167 -156 -246 -372 -250 162 -225 138 -254 122 0
250 -146 243 -236 375 -255 -144 -150 267 -140 245 0
-144 -242 168 375 259 -150 156 -246 269 -270 -372 250 267 162 138 -254 0
-144 -242 267 -102 -150 209 245 168 -272 -259 156 16 -270 372 261 159 138 -172 247 0
252 -141 -226 -261 250 -150 -263 -246 168 267 162 0
-226 -140 -252 -255 -144 -242 250 -150 168 -261 113 -225 267 162 138 0
-144 -242 156 -243 -259 -150 -386 -140 270 267 249 138 0
-382 -242 -324 272 -232 -150 -259 156 -246 -141 270 249 -194 0
375 -368 -146 -255 -144 250 -140 243 -150 267 245 0
-156 -167 252 -226 -140 244 243 -263 -150 168 -246 -270 -372 267 159 211 0
267 -242 261 393 243 374 -269 -246 -150 270 -156 162 249 -194 122 0
-156 -242 -269 243 -140 -261 -255 -246 -150 -270 250 267 162 159 -194 153 0
368 -225 -156 -252 243 -242 -150 -194 0
368 267 -156 243 -236 -261 -150 -252 -242 -202 -194 0
-261 -385 -255 -147 -140 243 -232 250 -150 162 0
267 -242 -269 261 -140 243 374 -263 -246 -150 270 -156 162 249 -194 0
267 -242 -255 -263 -140 243 374 -246 -150 270 -156 249 -194 0
245 243 -156 -202 -140 -146 250 -261 -150 -255 -368 267 0
372 269 -255 -150 243 270 -140 -156 249 247 0
-156 -374 -224 -226 243 252 393 -242 -150 100 -246 -219 270 -372 267 249 138 -254 122 0
-255 -261 243 -147 -150 -155 -140 -259 250 64 -232 162 0
-168 267 -255 64 243 -232 209 245 -146 -259 270 -150 249 0
-168 -242 -140 250 156 -259 -150 -261 -255 375 267 162 138 0
-242 -245 -150 -140 375 250 -168 156 -255 -259 162 138 0
-368 -144 243 -261 -150 -255 242 -236 -202 264 138 0
-261 -255 243 -140 -147 -150 -236 242 -368 -202 264 138 0
-150 -202 141 156 144 -372 270 -162 249 138 -254 122 0
-374 372 270 -150 -144 -242 -225 -250 -202 126 -194 247 0
-259 -144 -150 267 -373 245 209 -155 269 247 0
-321 -150 -259 -232 -141 -245 -263 156 -246 -242 270 249 -194 0
-370 -150 -141 -225 0
-242 -256 -150 144 -141 -246 -252 270 267 249 -194 0
-242 267 -150 -372 -167 -141 -224 -246 269 -252 -256 138 -254 0
-242 -224 369 252 -259 267 147 -150 144 -263 -141 100 156 -246 -256 -176 138 0
-202 -373 324 -155 -182 -242 -150 -250 -141 -137 -259 -256 -258 247 0
267 -242 -150 144 -246 -141 156 -259 -256 270 -176 249 138 -254 0
-382 -226 -381 -176 -150 144 -259 -141 156 -242 270 249 138 0
-144 -252 -225 -385 -150 168 156 -242 138 0
377 168 -246 -333 -144 -242 -150 -263 113 -245 138 -254 0
-368 -255 -150 -156 267 -140 243 270 245 249 0
266 -333 -150 -246 144 -263 242 -367 -225 -156 113 168 138 -254 0
267 -248 -263 -150 156 -246 -141 270 -242 249 138 0
-259 -374 -246 -192 -147 -150 252 -232 -155 -263 -260 126 0
256 -269 -140 374 259 -246 -150 144 141 -242 156 147 270 -162 249 138 122 0
252 -261 -255 -156 -236 -140 243 250 -167 -246 -150 -263 -202 0
-236 -261 367 -150 168 144 -246 242 -270 -372 156 267 162 159 138 -254 122 0
-236 -261 367 -150 144 156 168 -246 -269 -270 242 267 162 159 138 -254 122 0
-236 -144 -225 -269 367 156 -261 -246 -150 -270 242 -202 159 138 -254 122 0
-324 -150 -263 -155 -259 -232 252 -147 156 -246 270 249 0
-234 -367 -386 259 -150 -245 147 -269 261 -111 156 162 -144 -136 -254 153 0
-375 -168 -373 -155 -261 -259 -150 -202 0
-250 -232 -269 168 -192 -144 267 65 -226 -242 -183 -155 -374 270 -202 -137 -150 243 249 153 0
-256 -250 -255 -147 -150 -202 144 367 156 -232 -259 242 -246 138 -254 0
-144 -243 -263 -155 147 -259 156 168 242 -232 367 -150 -195 -246 -225 138 -254 0
-375 -261 -202 -368 243 -140 -156 -150 -255 0
-375 -261 243 -368 -168 -140 -150 -255 -202 0
-385 369 -232 -176 -150 -141 -242 -263 144 -226 100 156 267 252 138 0
123 -162 -150 267 -258 -242 156 -263 -372 147 138 0
123 -242 -150 267 -246 252 269 245 156 -263 147 -162 138 247 0
267 -167 269 -141 -252 -242 123 -155 -246 -372 -150 -232 138 -254 0
-252 245 -146 259 -150 -242 269 16 156 209 -270 -162 159 138 -172 247 0
-225 -232 245 -372 -246 -150 -141 209 -224 -155 156 168 252 -270 269 267 159 247 0
-226 39 -150 -263 252 267 -140 -146 -255 -259 156 -242 -162 138 0
-385 -333 -144 -242 -140 -226 -150 -382 156 113 138 0
-248 -224 252 156 -176 369 -150 -263 144 147 -141 100 -242 267 138 0
-150 -263 -232 -155 243 -140 141 -224 -269 267 -180 -367 156 -259 147 -270 -162 159 138 -254 211 0
-221 -144 -368 -333 -150 0
252 -232 159 -263 267 407 -269 -117 -246 156 -144 100 -167 -270 243 -150 153 0
-267 123 -258 168 -141 -242 -270 -246 -250 -121 -202 -150 159 138 0
123 385 -259 -155 -372 -150 -245 -242 269 -194 0
-144 168 -226 156 -232 65 -225 -202 -150 -269 -183 -246 -242 267 -270 -263 -250 -137 243 159 153 0
-267 257 -374 147 270 367 -269 250 162 249 138 -254 122 0
-267 257 16 -374 269 -242 270 147 -372 261 162 249 138 -172 247 0
-267 -269 250 147 -242 168 -144 270 367 -374 257 162 249 138 -172 153 0
-374 -267 250 -255 -261 242 -269 270 367 -168 162 249 138 -254 0
261 -267 242 269 -374 168 147 270 367 -372 162 249 138 -254 247 0
-267 257 -269 147 270 367 374 250 162 249 138 -254 122 0
261 -267 -244 374 144 269 -242 -137 168 147 -186 -372 257 249 0
-267 257 -381 -244 168 -261 269 374 144 156 147 326 367 -372 -375 -202 249 138 -254 122 0
-267 257 -144 -269 168 -252 147 270 367 -386 250 162 249 138 -254 211 0
-234 -252 -144 168 -386 269 -242 -267 123 147 16 -372 257 261 138 -172 0
-267 257 -269 168 -244 147 270 367 374 250 162 249 138 -254 153 0
74 -374 168 -242 -266 121 269 -267 375 147 270 -372 -233 250 257 -194 0
261 -267 168 270 144 242 269 -374 -252 147 -137 367 -372 257 162 249 264 205 -172 247 0
263 -266 147 257 168 -267 0
-267 -210 -270 -372 -250 -246 269 162 159 138 -254 247 0
261 257 -144 168 -267 269 16 -242 -259 147 -186 374 123 -372 249 138 -172 0
-267 257 168 -269 -242 -386 156 147 270 250 -252 162 249 138 211 0
263 -267 -102 168 270 -202 -372 156 246 269 -257 -250 249 138 -254 247 0
74 -374 246 144 -269 -158 119 -140 -242 -156 147 -257 -260 -162 -267 -252 138 0
-267 168 246 141 -259 374 242 156 -257 270 -269 249 138 -254 122 0
-267 -252 367 269 -374 156 270 249 138 -254 247 0
-248 -252 -267 -137 -269 -140 141 -125 -17 -219 -374 -246 144 242 156 147 -260 168 -158 74 264 205 -172 0
-248 -267 -167 -195 -269 -246 374 -111 150 242 156 270 100 249 138 -254 122 0
-266 -267 -140 243 269 252 -156 -263 147 -270 -162 159 247 0
-267 -268 147 -270 -266 159 0
-368 -377 168 -267 243 -140 -266 141 -246 -270 144 159 0
-111 252 113 -150 -246 -259 -269 -267 242 156 -263 147 -270 -162 159 138 -254 153 0
-267 -266 415 -140 144 -246 -137 141 168 242 -270 -258 -372 252 121 243 159 138 -254 0
372 -141 -267 242 -270 269 -250 -202 -156 -246 159 138 -254 247 0
-231 242 121 252 -266 -246 243 156 -140 141 168 -267 -270 -137 -372 -232 269 144 159 138 -254 0
-267 -121 -148 168 -242 -202 -270 123 -250 -258 -246 -150 159 138 0
-267 -242 -202 -270 324 -250 -182 168 -258 246 -257 372 159 138 247 0
-267 269 372 -250 270 -202 -246 249 138 -254 247 0
-267 -182 -270 372 -250 -202 -242 -258 324 -246 159 138 -254 247 0
-267 372 -182 -250 -270 324 -258 -202 -257 -242 159 138 -254 247 0
-267 126 168 -374 147 144 242 -261 -269 -235 -244 270 367 257 -375 138 -254 153 0
-267 -250 -270 -202 -372 -242 269 -246 159 138 -254 247 0
-267 -371 367 268 -148 141 168 242 -372 -270 263 -140 -137 243 -258 121 159 264 205 -172 0
372 324 -250 -270 -202 -242 -267 156 -258 -182 -150 159 138 247 0
-267 -372 367 242 -336 -202 -270 268 246 141 -250 168 -227 269 121 159 138 -254 0
-267 -266 269 -242 -261 374 -375 147 270 16 -372 257 -202 249 138 -172 247 0
-267 -266 -235 -261 269 -242 168 374 -375 147 -186 -372 257 -202 249 -194 0
372 -374 -137 168 126 -242 207 -260 114 -267 255 -250 -246 -202 -266 247 0
121 242 -202 243 -267 -266 156 141 168 123 144 -270 -183 -372 -250 -232 269 -246 159 138 -254 0
-202 -267 246 -270 -372 -250 -242 121 -257 269 159 138 247 0
126 -374 -269 261 -259 243 144 263 -150 141 393 156 -246 -337 270 -242 162 267 138 122 0
261 267 147 374 -150 269 -246 156 270 -372 -242 162 249 138 -254 247 0
261 374 147 -269 156 246 -242 270 267 -257 162 249 138 -254 122 0
261 374 269 156 246 -242 270 -372 -257 162 249 138 -254 247 0
261 -269 371 -374 -156 246 -242 270 267 -257 162 249 138 -254 122 0
261 -269 374 -156 246 -242 270 267 -257 162 249 138 -254 122 0
261 -242 -246 -156 -270 -372 267 162 159 138 -254 153 0
-248 -242 261 269 156 371 246 -144 -270 -372 267 -257 159 138 -172 247 0
261 -242 269 156 371 246 -144 -270 -372 267 -257 162 159 138 -172 247 0
261 -242 371 246 -156 -270 -372 267 -257 162 159 138 -254 247 0
-374 126 -225 367 147 -269 -150 -156 -246 261 270 162 242 138 -254 122 0
-234 -124 261 168 156 144 -269 -367 263 -148 -371 -149 -219 -386 -257 268 162 264 -331 153 0
121 261 252 -140 -232 -227 168 141 -259 243 269 -155 -371 268 246 -270 -372 -336 159 122 0
261 242 367 246 -156 -270 -372 267 -257 162 159 138 -254 247 0
261 267 -148 168 -259 -371 147 -225 156 -269 268 374 270 -242 -257 162 249 138 -172 122 0
-121 123 -246 144 367 243 261 156 -258 150 242 -270 -372 162 159 138 -254 0
261 242 374 144 -370 150 -269 -225 -186 -246 168 -266 162 249 138 -254 153 0
-234 -367 -386 168 144 -111 -245 150 -269 147 -246 -137 162 261 -254 153 0
261 242 -147 -269 -186 -219 -246 374 156 162 249 138 -254 122 0
261 242 156 144 168 207 -219 -269 -186 150 -246 -259 374 162 249 138 -254 122 0
261 267 374 -156 -219 147 150 -246 -269 270 242 162 249 138 -254 122 0
-225 -156 147 -269 -150 261 -367 374 270 250 162 249 138 -254 122 0
242 156 367 261 147 246 -144 -270 -372 267 -257 162 159 138 -254 122 0
261 242 168 -269 -219 -245 144 150 147 -186 -246 -266 374 162 249 138 -254 153 0
261 374 156 -269 246 242 270 -257 162 249 138 -254 122 0
261 -242 -269 246 -156 -270 267 -257 162 159 138 -254 153 0
-117 261 -248 168 367 -144 156 -269 -246 242 -270 267 162 159 138 -254 153 0
261 -144 -156 -269 -246 242 -270 267 -180 162 159 138 -254 153 0
261 242 156 -147 -269 -246 374 270 162 249 138 -254 122 0
242 156 147 168 367 261 -269 246 -144 -270 267 -257 162 159 138 -254 153 0
-144 156 147 168 -367 261 -269 246 -270 267 -257 162 159 138 -254 153 0
374 261 -269 168 147 156 246 -242 270 267 -257 162 249 138 -172 122 0
374 261 119 326 -147 156 246 -242 -269 -257 162 249 138 -254 122 0
-252 -374 -367 -147 156 261 -269 -219 246 270 -257 162 126 264 -331 0
261 374 156 168 -252 -269 111 246 242 326 -257 162 249 138 -254 0
-144 261 150 -269 -242 -246 -156 -270 267 162 159 138 -254 153 0
123 261 156 -144 252 168 -258 -121 -246 -242 -270 -372 267 159 138 -254 0
245 261 156 144 -150 -168 -140 209 -146 -246 -242 260 -270 372 267 162 159 138 -254 247 0
224 -371 -242 168 156 144 -146 -148 268 261 -176 -270 372 267 -257 162 159 138 247 0
-266 261 -269 168 147 -225 -374 144 156 246 -242 270 -257 162 249 138 153 0
225 261 144 -252 168 156 -246 -242 260 372 267 162 159 138 247 0
242 156 -367 147 261 246 -144 -270 -372 267 -257 162 159 138 -254 247 0
261 -242 159 141 -140 168 243 -147 156 246 144 -270 372 -257 162 -259 138 247 0
261 -140 159 -242 -195 -227 144 243 -147 156 168 246 -270 372 -257 162 -259 138 247 0
-225 -374 168 -255 371 -141 261 -269 -156 246 -242 270 -257 162 249 -194 153 0
374 261 -255 168 -269 -156 246 -242 270 267 -257 162 249 138 -254 153 0
123 261 -140 243 168 144 150 -255 269 -246 -242 -270 -372 162 159 138 -254 0
-252 -242 261 -259 168 -269 156 -255 246 -144 -270 267 -257 162 213 138 -172 211 0
-168 -242 213 -140 -144 248 261 156 -255 246 -269 -270 267 -257 162 -259 138 211 0
-252 -242 168 144 156 -246 261 260 -270 -372 267 162 159 138 -254 247 0
261 -242 -168 156 144 -246 -259 -270 -372 267 162 159 138 -254 122 0
168 242 159 -367 261 144 246 156 -270 -372 267 -257 162 -259 138 -254 247 0
261 242 156 374 -245 144 147 -269 -186 -219 -246 -259 150 -180 162 249 138 -254 153 0
-144 -225 -246 168 367 242 261 -141 -258 156 -270 -372 162 159 138 -254 122 0
245 261 144 -150 156 168 209 -141 -246 -242 260 -270 372 267 162 159 138 247 0
261 -242 168 144 156 -147 123 246 -141 -270 372 -257 162 159 138 247 0
-252 261 144 -147 -246 168 156 -141 -367 260 372 162 159 138 -254 247 0
-252 261 168 269 -225 144 156 -141 -246 242 260 -372 267 162 249 138 -254 247 0
261 -176 -242 255 -140 141 144 156 168 -256 -246 -248 -270 372 159 138 247 0
123 261 156 252 144 269 168 -232 -259 -246 -242 -270 -372 267 162 159 138 -254 0
261 121 269 144 252 -385 -231 168 -224 -232 -259 246 -270 -372 267 -257 162 159 247 0
123 261 156 252 144 269 168 -141 -259 -246 -242 -270 -372 267 162 159 138 -254 0
-252 -242 -232 -224 269 168 -259 -155 -246 261 -270 -372 267 162 159 138 -254 122 0
123 -258 -246 147 141 -121 243 261 168 156 -225 367 242 -270 -372 159 138 -254 0
-385 261 156 252 243 -121 144 141 -258 -263 -246 -242 -270 -372 162 159 138 0
245 261 -242 144 168 147 -252 156 -246 260 372 267 162 159 138 247 0
-252 -242 168 -144 156 -246 261 -270 -372 267 162 159 138 -254 247 0
-212 261 141 -269 374 -252 111 246 242 326 -257 162 249 138 -254 0
-266 261 156 141 -269 374 111 246 242 326 -257 162 249 138 -254 0
-144 -225 -246 168 261 156 242 269 367 -270 -372 162 159 138 -254 122 0
-144 261 -269 156 242 367 -246 -270 267 -180 162 159 138 -254 153 0
-144 261 -225 168 -269 156 242 367 -246 -270 267 162 159 138 -254 153 0
267 257 -144 -269 147 242 270 367 261 162 249 138 -254 153 0
261 -242 159 144 156 269 246 168 -270 -372 267 -257 162 -259 138 -254 247 0
261 -242 168 371 -141 -156 269 246 144 -270 -372 267 -257 162 159 -194 247 0
261 -242 156 -144 168 252 269 -246 -259 -270 -372 267 159 138 -254 122 0
248 -242 371 159 261 -144 269 246 -155 -270 -372 267 -257 -259 138 -172 247 0
248 -242 371 159 144 -140 261 269 246 -155 -270 -372 267 -257 162 -259 138 247 0
261 -242 252 168 -156 371 -140 -263 269 246 144 -270 -372 267 -257 162 159 138 0
-242 261 371 159 168 -255 144 156 269 246 -245 -270 -372 -257 162 -259 138 -172 247 0
-242 261 -195 168 144 371 -140 269 246 -252 -270 -372 267 -257 162 159 138 247 0
261 242 -367 147 -140 168 141 -225 144 156 269 -246 -259 -270 -372 267 162 159 138 -254 247 0
261 -242 156 -245 144 -168 123 269 -246 -259 -270 -372 162 159 138 -254 0
-248 -242 168 261 -121 371 156 -258 246 -144 -270 267 -257 159 138 -172 0
256 261 -219 150 -367 168 -140 269 144 121 -246 -270 -372 162 159 264 -331 0
256 261 147 243 -219 -140 -367 168 -382 269 144 121 -246 -270 -372 162 159 264 -331 0
261 -242 144 156 168 -147 246 -141 260 -270 372 -257 162 159 138 247 0
261 120 374 -147 -371 326 119 -259 -269 156 -242 -257 162 249 138 -254 122 0
-242 257 -374 144 -269 -147 270 16 261 162 249 138 -254 122 0
126 -374 257 -147 144 -269 270 367 261 162 242 138 -254 122 0
261 257 270 168 -141 -219 121 269 147 -367 -372 162 249 264 -331 247 0
261 257 144 270 168 147 -219 121 269 -367 263 -372 162 249 264 -331 -181 0
261 257 144 -195 168 270 -219 121 269 147 -367 -372 162 249 264 -331 -181 0
261 257 144 168 147 269 -270 -367 -372 162 159 138 -254 247 0
-252 257 141 156 270 168 -219 121 269 -367 -372 261 249 264 -331 247 0
-117 261 -244 267 168 144 156 -269 -248 -270 242 162 159 138 -254 153 0
261 257 141 156 168 147 269 -270 -367 -372 162 159 138 -254 122 0
-234 -367 261 -245 144 -386 -195 -219 269 121 147 257 -372 162 264 -331 -181 0
261 257 156 144 141 147 269 -270 -367 -372 162 159 138 -254 122 0
-231 121 -140 141 252 -146 377 -259 156 168 257 -242 269 -270 -372 261 159 138 0
261 -256 257 16 168 144 -242 269 -270 147 -372 -156 159 138 -254 122 0
-252 257 168 147 -245 144 242 269 -270 -372 261 162 159 138 -254 247 0
123 245 -121 141 -258 243 261 144 156 -242 -270 267 162 159 138 0
261 -372 156 144 168 243 263 374 270 367 269 162 249 138 -254 247 0
261 248 -121 243 -386 256 156 269 270 162 249 247 0
-111 261 -269 -245 147 144 -195 270 -243 257 162 249 -254 0
-111 168 -252 141 -246 261 156 150 -270 372 162 159 -254 247 0
261 372 -245 -144 168 -270 147 -367 257 162 159 138 -254 247 0
372 257 156 144 270 261 168 -252 -242 162 249 138 247 0
-252 261 141 242 -244 144 168 -270 372 257 159 138 -254 247 0
261 -144 168 -270 -147 372 257 162 159 138 -254 247 0
261 168 -242 -140 -252 156 141 -259 -270 372 257 159 138 247 0
261 -168 -270 -147 372 257 162 159 138 -254 247 0
-411 -257 -259 168 156 -242 -148 147 -252 -371 -225 270 125 249 138 0
261 267 -374 156 147 -144 367 -246 -167 258 -233 -259 270 242 162 249 138 -254 122 0
-187 -374 -227 -250 -371 -233 270 268 -336 0
-156 -374 -150 -233 270 0
-144 -374 -233 270 -162 0
-374 -225 -336 -370 -371 -227 -233 270 268 0
-374 -370 -233 -243 -242 -225 -140 270 138 0
-374 -375 270 -261 -370 -235 267 -225 -233 0
-269 -156 246 -242 270 250 267 -257 162 249 138 -254 122 0
-141 -156 267 -242 -269 -246 -374 270 150 250 162 249 138 -254 153 0
375 267 -258 150 -242 -246 -156 -372 -141 250 162 138 -172 0
375 -372 -168 150 162 -246 -156 -258 -242 250 267 138 -172 0
-235 -375 -147 -156 -261 0
-147 -141 -156 0
-374 372 -242 144 256 147 -260 -141 168 -156 261 257 162 126 -194 247 0
-141 252 -186 -263 -192 374 -258 -156 -372 249 0
121 -372 -141 -156 0
144 261 -141 168 -156 -242 -270 147 372 257 162 159 -194 247 0
372 -370 -202 -261 -266 168 -242 -270 147 -141 -375 -156 257 159 -194 247 0
-141 -156 -367 147 168 -270 -250 372 257 162 159 264 -254 247 0
-141 -156 -219 -367 264 -331 0
-208 -162 -156 0
-141 -156 -258 -242 -121 -270 246 168 -250 -137 -267 -257 -202 159 0
126 -374 242 -156 -137 367 252 -260 -263 -141 138 -254 0
-225 -252 -156 -14 150 -141 147 367 -246 242 205 -254 0
-239 -377 -144 -156 0
-377 -141 -258 -263 -372 -156 0
-377 -370 100 267 -156 -144 -263 0
-269 -156 263 147 260 -270 -162 159 138 -254 122 0
-252 -375 -202 168 269 -261 -235 -372 -242 -194 0
-52 -250 371 -259 156 269 -202 268 -242 -372 123 246 420 -180 138 0
-374 372 -242 270 -202 156 123 -250 126 138 247 0
-374 372 -371 -148 270 -202 -17 268 -219 -257 -250 126 138 -254 247 0
-374 126 -242 267 259 168 144 -269 156 246 270 -202 263 -137 -257 -226 -250 122 0
-250 -374 147 267 -242 168 156 270 246 -269 -202 -257 249 138 122 0
-250 -374 39 -146 -232 -259 267 -226 -242 -155 -183 270 246 -137 -202 65 -257 249 0
-374 -370 -233 150 -202 -120 -246 270 -250 -225 0
-250 -374 263 -183 -232 168 -147 65 -137 -269 156 -242 270 246 -202 -141 -257 126 122 0
372 -267 -250 269 270 -257 -202 249 138 -254 247 0
-225 -250 269 -257 246 -372 147 -367 -202 138 -254 122 0
-250 -257 156 367 -17 270 -202 -259 246 -372 269 249 138 -254 0
-226 -137 -263 -257 -227 -202 -242 267 168 269 39 -146 -250 246 -372 0
-415 -250 -219 -245 -202 147 0
-176 -231 -257 -141 156 -256 -259 269 246 -202 -372 -250 242 121 138 -254 0
-250 -242 -372 246 156 -259 269 -202 -257 138 247 0
-202 372 -242 -270 -147 246 -250 168 -257 159 138 247 0
243 -255 -202 -259 -140 121 -372 156 -250 123 269 -242 -258 138 0
-202 -242 144 -257 16 156 -147 -270 246 -250 168 -372 159 138 -172 247 0
-381 -232 144 -375 267 -242 -372 -155 121 -261 -202 -226 269 -231 -259 -235 -194 0
-250 -167 367 -225 -252 242 147 269 -372 -202 138 -254 0
-226 -423 -385 168 -202 267 -263 -155 -261 252 -242 -246 138 0
-250 267 147 -246 168 156 270 -202 -372 -144 -242 249 138 -254 153 0
-250 372 -255 -259 -202 -168 -140 156 242 243 269 -246 138 -254 247 0
-370 -250 -225 -202 -367 -156 -246 264 -254 0
-141 -250 -225 242 147 -202 367 -156 -246 138 -254 0
-120 -128 -202 150 -246 0
-423 372 -144 -140 -202 -242 -243 -195 -225 -261 -246 138 -254 247 0
126 -374 150 -250 270 -202 -370 -246 267 0
-141 -250 -225 -202 147 367 -258 242 -372 -144 -246 138 -254 0
252 -250 -242 246 -202 371 -372 -137 269 -257 -263 0
-370 -227 -371 -225 -250 -202 -242 -137 -336 268 0
-243 269 141 -227 -372 268 -336 -371 -202 121 -250 0
-255 -244 242 144 141 -250 372 -202 138 -254 247 0
-244 -255 -137 367 141 269 -202 -258 144 -372 -250 242 264 205 -172 0
113 372 156 -333 -367 -245 -259 -202 -231 141 -250 147 264 -254 247 0
-333 372 -245 -231 -219 -259 141 156 147 113 -250 -202 -367 264 -331 247 0
-221 -252 -250 -167 -367 -333 -368 -202 264 -254 0
252 -250 367 268 -202 -263 -148 242 147 267 -371 -257 138 -254 0
252 -263 -227 367 -371 242 -250 -231 -202 268 -336 156 138 -254 0
-244 -250 -372 -202 252 242 367 269 -141 -263 -258 138 -254 0
369 -263 -202 144 -245 147 -250 377 168 -176 0
369 -333 243 -176 144 168 -202 -245 -221 -263 147 -250 0
410 -226 -242 -250 168 -183 -202 -259 272 -137 -225 -373 156 65 0
-225 -333 -370 -192 100 252 -202 267 -367 118 141 113 -263 -250 264 -254 0
-221 -245 252 100 -367 147 -250 -219 -202 -192 -333 243 -263 264 -331 0
-239 -377 -137 269 -372 -242 -250 -202 0
-244 -263 -377 367 147 -202 100 144 -225 242 -250 267 138 -254 0
-202 -141 147 156 -257 270 249 138 -254 247 0
-374 256 -137 168 144 -242 270 259 -202 372 -250 255 126 247 0
-226 -375 -202 -236 -255 -242 -232 -407 -259 150 -231 -140 -261 -246 243 138 -254 0
-252 -368 -167 -255 -140 -367 -260 243 -250 -202 249 138 -254 0
-255 -368 -258 243 -372 -140 -250 -252 269 -167 -202 0
-250 39 -155 410 65 -183 -226 -259 -146 270 -202 -137 -242 267 249 0
245 -250 267 372 168 -367 -263 -202 138 -254 247 0
-250 -137 -257 246 -146 -202 39 100 -242 -263 -370 371 252 267 0
-250 267 -242 245 269 209 270 -202 -137 -372 -370 249 0
-250 -256 123 -242 144 156 270 -202 -259 249 138 0
-250 369 -242 156 144 270 -202 123 249 138 0
-250 369 267 -226 -176 156 -259 144 367 270 -202 123 249 138 -254 0
-382 -202 -367 -226 113 -381 144 -250 -333 141 -219 264 -331 0
-250 -382 156 -202 -226 -367 147 144 -381 -259 264 -254 0
-255 -244 141 -202 147 -250 144 242 267 367 -372 269 138 -254 0
-244 -225 242 147 -250 367 156 269 -258 123 -259 144 -372 -202 138 -254 0
372 -250 -257 156 -202 -242 -259 246 138 247 0
-167 269 367 -372 -263 -192 156 242 121 268 -336 -250 -227 -231 -202 246 138 -254 0
-226 126 259 144 -374 255 -269 -242 156 267 270 -202 -137 141 -257 246 -250 0
372 -250 -259 268 123 -371 -148 -242 156 -182 -257 -202 138 247 0
-225 115 -257 -250 147 242 -148 -202 268 -371 144 367 138 -254 0
-224 115 -250 -226 -257 -137 -242 120 -371 -225 -202 0
-250 -252 -202 147 242 -225 -148 -371 268 -257 -167 367 138 -254 0
-377 267 147 -263 367 242 268 -202 -336 -371 -250 -227 138 -254 0
-227 -243 -336 -202 -225 147 242 -250 -371 141 367 268 138 -254 0
372 224 -367 -202 144 -250 268 -336 -219 -176 -227 -371 264 -331 -152 0
-252 -111 -269 141 144 168 246 -270 -250 -257 -202 159 138 -254 211 0
-177 -137 -250 -202 -245 -242 0
-381 -250 147 -385 -202 144 156 -245 0
-250 -382 -155 65 -226 -242 -183 -232 270 -202 -137 123 249 0
-231 -250 -370 -259 141 -202 123 -225 -183 -243 -373 0
-225 113 -202 141 -250 -333 168 -367 -252 147 264 -254 0
-239 252 -202 -257 -243 -370 119 246 -225 141 -250 -263 0
-336 -250 -381 -370 -227 144 268 141 246 -243 -225 -202 0
-252 242 -225 147 -141 168 -246 367 -250 -202 138 -254 0
-374 -252 270 -167 -225 -233 -370 -250 -202 0
-250 -256 -137 168 -252 141 -255 -246 -202 367 144 242 264 205 -172 0
-250 -137 -333 -202 -232 243 100 -183 -155 65 -192 377 -242 -221 252 -259 -263 0
-252 126 -374 -219 168 270 -250 -202 -367 264 -331 0
372 -250 -227 -202 268 -182 -219 156 -259 -371 -336 -367 264 -331 247 0
-367 -227 268 -336 -371 -250 -248 156 -202 -219 264 -331 0
-167 -250 -227 -367 -252 -219 268 -336 -371 -202 264 -331 0
-250 -225 168 -367 147 144 156 374 -246 270 -202 -372 -141 249 138 -254 122 0
-250 232 156 -257 -219 -225 246 147 -367 -202 264 -331 0
372 -367 -252 147 -167 -225 -250 -219 -202 264 -331 247 0
-370 -250 -141 -246 -225 -202 -367 264 -254 0
-244 372 -367 123 156 -202 -259 144 -250 264 -254 247 0
-333 113 144 -250 372 -202 -367 141 -244 264 -254 247 0
-221 -368 144 -333 -202 -244 -367 -250 264 -254 0
-370 -225 -202 -252 -367 -250 -167 264 -254 0
-370 -225 -202 -367 -167 -250 -219 -252 264 -331 0
-250 -168 144 156 -202 147 -246 -386 270 -367 -245 249 138 -254 247 0
-202 121 -372 -263 141 -258 147 -270 -242 252 -250 216 100 257 159 138 122 0
-375 369 -372 -256 393 141 147 252 121 -202 144 168 -242 269 -270 -261 -235 257 159 138 0
-375 -245 -372 269 147 168 242 121 -202 141 -270 367 -261 -235 257 159 138 -254 0
-371 -257 270 374 120 147 -202 -250 -242 267 249 -194 0
372 -250 168 270 -202 144 257 -242 249 138 247 0
-250 372 147 270 -202 -168 257 -242 249 138 247 0
372 -374 -242 147 168 270 -250 -156 -202 -266 257 126 138 247 0
-250 -374 168 -226 -242 -269 16 252 -263 267 141 270 -202 118 -144 257 126 138 -172 0
-250 257 -242 147 -258 270 -202 168 -141 -372 249 138 247 0
-252 -141 -202 367 -258 147 -270 -250 168 257 -372 159 138 -254 122 0
-266 -141 252 -372 -202 -258 147 -270 269 -250 168 257 -242 159 138 0
-324 156 -242 -374 144 258 270 168 -250 257 -202 249 138 122 0
-250 257 252 144 -374 147 270 -202 -367 168 -269 249 138 -254 122 0
-239 -377 -261 -375 -202 269 -372 121 0
-375 -235 -259 -202 147 -367 -261 -245 -219 -140 156 -255 264 -136 -331 0
-231 -250 -144 -243 156 141 -246 -202 -182 372 -259 247 0
252 -266 374 -140 100 -261 -242 -202 -269 -375 -147 270 -156 257 249 138 0
118 257 267 -263 -224 -242 16 252 -374 -226 141 270 -202 168 -250 -269 249 138 -172 0
126 -374 257 -137 -263 -176 -156 144 -242 147 270 -202 -141 168 -250 -269 -226 211 0
-269 126 -374 -137 65 -183 -263 -226 -232 -242 147 270 -202 -141 -250 -144 257 168 211 0
-250 -269 168 -242 267 16 252 -374 245 141 209 270 -202 118 -144 257 249 138 -172 153 0
-324 -374 126 -242 156 65 -232 144 -263 252 -183 270 100 -137 -250 257 -202 258 153 0
267 245 209 156 263 -242 -372 -258 -381 -270 168 -250 -202 -141 257 159 138 122 0
-324 126 141 267 118 -269 242 -374 -226 144 156 367 270 -250 256 -202 263 138 -254 122 0
-250 257 -202 147 243 -168 270 367 -269 -255 -144 249 138 -254 211 0
-252 -258 -167 141 -202 367 -270 144 -137 -250 -372 257 255 159 264 205 -172 -181 0
-255 -375 -202 -140 267 -146 -242 243 -261 372 -194 247 0
-252 126 -167 367 -156 -374 -140 147 270 267 -250 257 -202 243 138 -254 0
-375 -261 -255 -140 -202 -263 -192 -242 100 121 252 269 -235 -372 138 0
-255 -368 242 -236 -261 243 -147 -140 -144 -202 264 138 0
-252 126 -374 -167 242 144 147 367 270 -250 257 -202 -269 138 -254 211 0
-252 258 141 -202 -367 -270 168 -250 257 -147 126 138 -254 122 0
121 -261 -202 374 -263 -192 -186 269 252 -375 -372 249 0
-250 257 100 144 141 -263 -171 -367 326 -202 -269 252 374 249 138 -254 0
-250 257 -171 -147 -367 270 -202 258 168 374 249 138 -254 122 0
-252 374 168 -269 147 141 270 -250 257 -202 249 138 -254 211 0
-250 257 -269 141 -367 -171 252 326 -260 -202 144 100 374 249 138 -254 -181 0
-141 257 -367 258 -147 270 -202 -250 168 374 249 264 -254 153 0
257 -252 -147 -367 -269 -202 -260 141 168 -250 -386 249 138 -254 -181 0
-234 -250 -202 -219 -372 -167 269 -386 -252 138 -254 0
-234 256 -250 -269 141 144 168 156 -252 -111 -386 -202 -254 0
-202 256 263 -219 209 -269 245 144 168 156 -370 267 -225 -367 270 -250 141 -386 249 264 -331 122 0
-234 -375 -202 -261 -255 -156 -140 -147 -386 243 0
-141 257 263 -258 -242 -147 270 -202 -250 -372 168 -386 249 138 247 0
-252 126 367 -147 -270 168 -250 -372 257 -202 -141 138 -254 122 0
-141 -202 258 -242 374 270 168 -250 257 -147 249 138 153 0
-252 -367 -202 -270 -147 -250 168 257 -372 126 138 -254 122 0
267 -375 -370 121 -261 -372 269 -202 0
-370 -375 -202 -261 -225 -156 -141 0
140 -375 156 -192 367 -259 168 -263 242 -261 141 -202 138 -254 0
-202 -141 -147 -270 168 -250 -372 257 -367 126 138 -254 153 0
144 369 -202 -367 -375 168 141 156 -263 -219 -270 -269 -259 257 -176 126 138 -254 211 0
369 -375 -202 -242 244 144 -261 100 252 267 -146 -263 -192 -256 -176 -194 0
-373 65 -261 -202 -259 269 -372 -155 -375 122 0
-144 -373 -259 -375 -261 -147 -155 -202 0
-370 -250 -146 267 -263 -242 -202 374 270 100 -137 252 39 249 0
-266 -374 147 -128 -233 -202 263 -219 270 168 372 257 -367 -185 138 -254 247 0
-225 -252 -236 168 -261 -367 -235 -195 113 144 -226 -333 -244 267 -219 -202 264 205 -331 0
257 -252 -202 144 258 156 326 168 -111 -250 374 249 -254 153 0
-250 -243 156 147 270 -202 141 246 219 249 -254 247 0
-111 -250 -386 -202 156 258 141 144 257 -243 -234 -254 153 0
-375 -393 -231 -259 367 -263 -261 168 156 242 -195 -192 -202 138 -254 0
-375 374 100 -259 -263 252 -242 -261 -155 -231 270 -202 249 138 0
256 -111 -269 141 144 168 156 374 -246 -367 -186 -250 -202 249 138 -254 122 0
-234 -243 -235 141 -259 156 -219 -261 -245 147 -375 -367 123 -386 -202 264 -331 0
-375 -202 -261 -226 -420 121 267 -411 249 0
-261 -167 258 -246 -202 367 242 150 -375 144 -252 -270 156 159 138 -254 153 0
242 -225 156 144 141 147 -202 258 -269 246 -266 -270 -250 367 -257 159 138 -254 153 0
-225 -250 -259 -119 242 156 -257 367 -202 147 138 -254 0
-252 367 -269 141 242 168 246 144 -270 -250 -257 -202 159 138 -254 211 0
-242 168 156 144 258 -257 -202 246 -270 -250 256 -269 159 138 153 0
-242 168 156 -147 246 -202 144 -270 -250 -257 -269 159 138 122 0
-225 -261 258 -269 242 147 -252 -375 367 141 144 168 -245 156 -246 -270 -202 159 138 -254 153 0
-202 -111 156 141 144 -257 -243 -270 -250 246 258 159 -254 153 0
-202 144 -257 147 -372 156 141 242 -270 -225 -250 367 246 159 138 -254 122 0
-202 267 242 168 -156 246 -270 367 -250 147 -257 -372 159 138 -254 122 0
269 -144 243 -255 -372 -250 246 -137 -242 -202 -257 -147 247 0
-141 242 -202 367 -269 147 258 144 168 -246 156 -270 -250 -225 159 138 -254 153 0
-242 168 -147 -246 -202 -269 156 -270 -250 144 126 138 -254 122 0
-375 -232 168 -269 -155 -246 -202 -219 252 -367 -235 156 -261 243 -270 368 159 264 -331 153 0
-382 144 243 159 141 156 258 -269 147 -111 -270 -250 -202 368 -254 153 0
-236 -371 -242 141 -140 168 -259 -375 156 -261 246 144 -270 -269 250 -257 -202 159 138 153 0
-375 372 -259 246 -155 -261 -242 -257 -202 138 247 0
-375 -235 -269 252 141 -219 -246 -202 243 -140 -367 168 -261 144 -270 256 159 264 -331 153 0
256 267 -269 156 144 147 -202 168 -367 -270 -250 258 -246 126 138 -254 153 0
-225 372 -371 -148 -242 268 147 267 -202 -257 -250 -194 247 0
-144 407 242 -202 -252 -117 156 168 -246 367 -270 -250 -269 267 159 138 -254 153 0
-385 -168 -246 -242 -202 -150 -375 -140 144 -261 156 -270 -269 267 159 138 211 0
-117 267 -242 407 209 156 168 -246 -270 -250 -202 258 126 138 -254 122 0
126 407 242 267 144 156 168 -246 367 -270 -250 -202 258 -117 138 -254 153 0
-144 -225 367 -269 147 242 -246 168 -141 156 -270 -250 -202 267 159 138 -254 153 0
-261 -236 -246 -202 147 367 150 156 242 -270 -372 168 144 267 159 138 -254 122 0
119 367 -269 156 246 147 144 -202 -141 168 242 252 -270 -250 -259 -257 267 159 138 -254 153 0
-336 -235 -236 268 -227 -17 -263 -219 367 -202 242 -371 -261 252 138 -254 0
-232 -226 268 -385 -410 -375 -407 -371 -261 -227 -336 -202 0
-226 168 156 144 246 -202 -269 -270 -250 267 -242 -257 159 138 122 0
-232 65 -226 -225 -202 -141 -183 -246 -242 144 -150 -269 -146 156 168 258 -270 267 -250 -137 39 126 153 0
-224 -375 -202 -261 -257 246 -256 371 0
-371 -225 -257 -156 -269 -226 -242 168 144 -270 -250 -202 246 159 138 122 0
-168 156 -367 159 150 -375 144 -261 -270 -372 267 -246 -202 138 -254 397 0
-261 -231 -202 -242 -333 150 -232 -236 -259 -144 113 -245 -246 138 -254 0
-375 -261 168 269 -248 -226 -202 144 156 -242 -270 -372 267 -246 159 138 -254 122 0
-236 -261 -202 -373 -255 150 -259 -155 64 -140 243 -242 -246 138 -254 0
-382 -261 144 -269 147 -219 -385 150 -367 -202 141 156 -375 243 -270 -246 159 264 -331 211 0
-324 -202 144 147 367 -269 156 267 270 -250 168 -246 249 138 -254 122 0
-324 -202 -242 16 147 144 -269 156 267 270 -250 168 -246 249 138 -254 122 0
267 -225 159 263 -269 147 242 168 -156 144 -270 -250 367 -246 -202 138 -254 122 0
-324 -374 -167 126 367 242 147 144 -269 156 -245 270 -250 -246 -202 138 -254 122 0
-324 -202 144 141 209 118 393 243 65 252 -242 256 -232 245 -269 156 100 -183 270 267 -250 -137 -246 249 122 0
-375 -261 159 168 -269 367 144 150 -236 -195 242 -270 -243 -246 -202 138 -254 153 0
-250 -381 -176 -242 252 -146 -167 39 -226 -258 -270 -202 -263 -141 216 -372 100 138 122 0
-267 119 -266 168 -156 144 141 -270 242 -250 -202 -257 246 159 138 -254 0
-375 -261 168 144 269 -246 -202 156 -242 -270 -372 267 259 159 138 -254 122 0
-202 144 -257 147 259 -149 -148 168 242 -269 267 -270 -250 156 367 -371 126 138 -254 122 0
-373 -137 -242 -261 65 -232 -375 -259 -155 -252 246 -167 -257 -202 0
-373 -375 -261 -219 -235 -155 -367 -259 -202 264 -331 0
-225 -261 -246 -202 150 367 -269 -236 168 156 147 -270 144 242 159 138 -254 122 0
407 -232 -242 144 -202 258 156 168 -246 -270 -117 -250 267 -137 126 153 0
-381 -375 -202 -242 -261 -252 -137 168 144 156 -259 -235 138 0
-261 -144 -269 -246 -225 -202 367 -150 156 -236 -270 242 -259 138 -254 122 0
-144 -225 367 -246 -202 147 -269 -263 242 168 156 -270 -250 141 159 138 -254 153 0
-375 -261 -259 -263 -192 168 -243 -195 -242 -140 156 -202 138 0
-225 -423 367 159 -269 -243 144 168 147 -236 -375 -261 242 -270 -195 -246 -202 138 -254 153 0
267 -375 -202 168 150 -156 -141 -263 -261 -242 -246 138 -254 0
-261 267 -202 -375 -168 150 -156 -242 -255 -246 138 -254 0
-375 -261 -202 -259 150 -168 -147 -236 -155 -255 -242 248 -246 138 -254 0
243 -236 -202 -221 -333 150 -259 -242 -373 -261 -231 -246 138 -254 0
-144 -261 159 -236 367 242 -270 -372 156 267 -180 -246 -202 138 -254 122 0
-375 -226 -202 -141 -150 -263 -261 267 252 168 -246 0
-375 -226 -202 -150 -224 267 -261 -256 -141 -246 0
-375 -382 159 147 -219 -269 150 -367 -235 144 156 -261 141 -270 -246 -202 264 -136 -331 153 0
-225 -242 -375 159 141 168 -269 -140 371 144 -156 -261 246 -252 -270 250 -257 -202 243 -194 211 0
243 -235 -261 100 252 -263 368 -375 -246 -202 0
385 -261 -375 -144 -168 -155 -259 -202 0
252 -242 -375 159 141 -140 -269 -263 371 -261 246 144 -270 -257 -202 243 -194 211 0
65 -232 -155 -261 144 -259 -168 371 -375 -257 -256 246 -225 -242 -202 -194 0
-144 -261 168 -269 -259 150 -202 367 -236 156 -270 242 267 -180 -246 138 -254 122 0
-144 -261 -269 168 150 -202 367 -236 156 -270 242 267 -180 -246 159 138 -254 122 0
-368 -255 -236 -140 -219 118 243 242 -370 267 -261 -367 -202 264 138 -331 0
-255 -375 -261 -259 -147 -140 -263 -192 -144 -242 -202 138 0
-242 -261 -375 150 -154 -255 -156 -144 -246 267 -202 138 -254 0
-242 -263 -375 150 -261 -156 -144 -246 267 -202 138 -254 0
-375 -261 242 -147 168 144 -236 367 150 -156 -252 -246 -269 -270 243 -202 159 138 -254 211 0
-202 242 269 -268 -263 -372 141 147 -270 -250 367 -258 252 159 138 -254 0
-261 156 -246 -202 -140 -195 -375 168 144 -270 -243 -242 372 159 138 -254 247 0
372 -261 -202 168 147 156 -375 -266 259 -242 -270 -245 -371 -227 159 -194 247 0
-252 -372 242 -268 147 367 -202 -270 269 -250 168 -258 141 159 138 -254 0
-373 -231 -144 -261 -375 -147 -259 -202 0
-375 269 -261 -371 -372 121 268 -336 -227 -202 0
248 -375 -202 -259 -261 269 -372 367 242 138 -254 122 0
-375 -242 269 -372 -261 -144 -246 -202 138 -254 122 0
-377 -375 372 -259 -261 -263 168 156 -242 -202 138 247 0
-210 -267 -242 -270 -246 -372 -250 269 -150 -202 159 138 247 0
-210 123 -150 -242 -267 -270 -246 -372 -250 168 269 -202 159 138 0
-370 -375 -261 -367 267 -202 138 -254 0
-370 -225 -219 -375 -367 -261 267 -235 -202 264 205 -331 0
-370 -375 -202 -167 -261 150 -252 -246 -225 0
-375 -370 243 -202 -368 242 -236 267 -255 -261 -140 264 138 0
-252 144 -372 -137 -121 242 -202 141 168 -246 -270 -258 367 -250 259 159 264 205 -172 0
144 168 -246 -202 141 393 -375 -261 255 156 -270 -242 259 372 159 -194 247 0
372 -261 -202 141 -140 147 168 -375 -246 144 -270 255 -242 -245 159 -194 247 0
372 -144 -202 -150 -375 156 393 147 -261 168 -246 -270 255 -242 -245 138 247 0
-375 372 141 144 156 -140 147 -261 168 -243 -270 -242 -246 267 -202 159 138 -254 247 0
372 -225 242 -270 147 268 119 -202 246 111 -371 -336 -250 159 138 -254 247 0
-375 -261 -147 372 156 367 -270 168 -246 -202 159 138 -254 247 0
372 -261 -375 367 -270 168 -246 267 -202 159 138 -254 247 0
372 -261 -375 367 -270 147 -246 267 -202 159 138 -254 247 0
372 -375 150 367 -261 -225 147 -246 -202 138 -254 247 0
-236 -370 -144 -192 -202 168 242 -269 -270 -263 367 257 267 126 138 -254 211 0
-235 -225 -226 -375 -261 258 168 -252 -242 156 -270 257 -202 159 138 153 0
372 141 -156 257 -242 147 -270 -250 -154 -202 144 159 138 247 0
-236 126 141 147 367 242 -270 156 -269 257 -202 144 138 -254 122 0
-367 -252 156 -268 372 168 -270 -250 147 -202 144 159 138 -254 247 0
-375 123 367 -225 242 -244 147 144 156 141 -261 -243 -202 138 -254 0
-375 -235 -226 -259 -232 -225 -252 -155 269 121 168 -261 -242 -372 -202 -194 0
267 407 -261 269 -372 -375 121 -202 0
372 -245 141 -140 168 -375 -270 -261 -242 147 257 -202 159 138 247 0
372 -219 -375 -245 -261 -235 168 -270 -367 147 156 257 -202 159 264 -331 247 0
372 -261 -375 144 168 -270 -367 147 156 257 -202 159 138 -254 247 0
372 -219 -375 -245 -261 -235 168 -270 -367 147 141 257 -202 159 264 -136 -331 247 0
372 -219 -375 -245 -261 -235 -367 -270 147 156 141 257 -202 159 264 -136 -331 247 0
-168 -144 -375 -261 372 -245 -270 -242 147 -140 257 -202 159 138 247 0
-375 372 141 156 -261 144 168 -270 -147 -242 -140 257 -202 159 138 -254 247 0
372 -252 -375 -261 -144 168 -270 -147 -242 -140 257 -202 159 138 247 0
372 -144 -375 -261 -259 168 -270 -147 -242 -140 257 -202 159 138 247 0
-375 -266 257 -202 372 243 168 -242 263 -140 -261 147 -194 247 0
372 -168 -242 -375 -261 -270 -147 -140 -259 257 -202 159 138 247 0
257 100 156 -202 -147 -242 -270 -250 -263 372 -377 159 138 247 0
372 -377 257 -263 144 -270 -242 -250 -202 259 -137 159 247 0
372 -373 144 65 156 39 -370 -146 -242 147 168 -270 -137 -250 -183 257 -202 159 247 0
372 -373 -255 65 -183 -242 -155 64 144 -140 -270 -137 -250 243 257 -202 159 247 0
372 -252 257 156 144 168 -270 -250 -202 -219 242 159 138 -254 247 0
-144 168 -245 156 -202 -269 147 141 -246 -270 -250 -367 159 138 -254 122 0
-111 144 168 -381 266 -269 -245 147 -202 141 -246 -270 -250 -367 138 -254 122 0
-141 144 -269 156 258 -147 168 -202 -246 -270 -250 -367 126 138 -254 153 0
-202 -382 -257 141 -226 168 144 -219 246 -270 -250 -367 -269 159 138 -254 122 0
267 -250 -257 147 246 144 -156 -202 -270 -367 -269 159 138 -254 122 0
-202 -382 -257 147 -259 -269 144 141 156 -219 -225 -270 -250 -367 246 159 138 -254 211 0
-252 -367 141 -202 -269 156 144 -147 168 -246 -111 -270 -250 258 159 -136 -254 153 0
-245 -261 -202 168 156 -375 -246 -270 -374 -367 372 144 159 138 -254 247 0
-202 267 147 -269 -257 156 -219 246 144 -270 -250 -367 141 -259 159 138 -254 211 0
-250 -225 156 246 147 -257 -111 -202 144 159 -254 153 0
-248 -111 159 -269 141 100 252 144 156 -263 242 -270 -250 -246 -202 138 -254 211 0
-202 242 -147 168 -246 -270 156 372 -250 -257 -111 159 138 -254 247 0
-250 -385 156 113 -147 -246 -202 372 -111 -254 247 0
-111 -225 -137 159 258 147 144 141 -367 -270 156 -250 -202 -243 -254 153 0
372 -111 242 144 147 141 -270 -250 -255 -202 -268 159 138 -254 247 0
-236 367 -202 252 -263 -261 242 -246 138 -254 0
257 252 -202 258 -147 -270 168 -250 141 -367 126 138 -254 122 0
-371 372 168 147 -270 -367 -225 268 -219 246 119 -137 -250 -336 -202 159 264 -254 247 0
-375 269 -202 -367 -261 -372 138 -254 -152 0
372 -111 144 -263 168 -270 -250 156 -202 257 159 -254 247 0
242 -225 144 168 -272 -102 -121 -258 141 147 -202 -270 -250 367 159 138 -254 0
-225 367 147 -156 246 144 -202 168 242 -270 263 -250 -257 -372 159 138 -254 122 0
-370 -156 -246 -146 39 -269 -333 -150 242 113 168 -202 367 -270 263 -250 267 -137 159 264 205 -172 153 0
-252 -375 -147 258 242 367 -150 168 144 156 -261 -246 -243 -270 -202 159 138 -254 153 0
372 -242 -146 245 -202 209 168 -266 -270 263 -250 156 267 159 138 247 0
243 -261 147 -202 150 -255 267 -140 242 -236 367 -246 138 -254 0
-244 -261 -202 -147 -373 -375 -231 144 -141 -242 -194 0
-144 -226 -407 -168 -202 -225 -232 -261 -259 -155 -375 0
372 -245 168 -375 144 -261 -270 -242 147 243 257 -202 159 -194 247 0
372 -261 -375 144 -242 -270 -266 147 243 257 -202 159 -194 247 0
-375 372 -168 141 -242 -144 270 147 255 -248 257 -202 249 138 247 0
372 267 -375 252 -261 168 -370 -146 -242 -270 243 -226 257 -202 159 -194 247 0
372 -144 168 -375 -261 -270 -242 147 -141 257 -202 159 138 247 0
-375 372 156 -140 141 -242 -261 144 168 -270 -377 -243 257 -202 159 138 -254 247 0
372 267 156 -375 -140 -195 -261 168 -242 -270 -370 -243 257 -202 159 138 247 0
-423 -261 -225 -242 372 -243 -140 147 -202 138 247 0
-263 372 -259 -375 -242 156 -140 168 113 -333 -261 -202 138 247 0
372 -242 -375 -140 141 -261 168 -144 -226 267 -270 -146 -370 257 -202 159 138 247 0
-381 -232 269 -385 -226 -242 -372 144 121 267 -261 -375 -202 -194 0
-375 372 -140 141 -242 -261 144 168 -270 -147 243 263 257 -202 159 -194 247 0
126 -374 -236 147 -140 -245 270 -219 -367 -261 -202 -255 264 -331 0
-387 -245 -367 113 144 -261 -195 -236 -244 -333 147 -202 264 -254 0
-261 -225 -202 123 -150 -259 -423 -144 367 156 242 -243 138 -254 0
-375 -225 -226 -244 -259 -367 156 141 144 -235 -219 -261 267 -255 -202 264 205 -331 0
-375 -225 -235 -239 100 252 -261 267 -226 216 -219 -202 -367 264 205 -331 0
-235 -225 -255 267 -261 -226 -375 -367 -195 -219 168 -252 -202 264 205 -331 0
-375 372 144 -261 270 -242 -244 -202 249 -194 247 0
-375 -261 -225 -202 -150 367 -259 156 -168 -243 242 -246 138 -254 0
-375 -235 -232 -219 -259 -202 -367 -226 -225 -261 267 -155 264 205 -331 0
372 -245 -375 -141 168 144 -261 -270 -242 147 -156 257 -202 159 -194 247 0
-245 242 147 168 144 -269 367 156 246 -236 -270 -261 -257 -202 159 138 -254 153 0
-375 -239 -202 168 367 -263 156 141 -259 147 242 -261 -243 -245 -192 138 -254 0
-375 -243 -202 -235 -245 -219 -367 147 -261 -140 264 -136 -331 0
-243 -245 -202 -375 -367 -261 415 -140 -235 147 264 -136 -331 0
-333 113 -144 -242 150 -236 -245 -259 -155 -261 -246 -232 -202 138 -254 0
-235 -375 -246 -245 -219 -156 -261 -367 -202 264 -136 -331 0
-226 168 -202 147 -263 -246 -367 -250 -245 -254 0
-375 -235 252 147 -261 -202 -255 -140 100 -367 -245 -219 -263 264 -136 -331 0
-387 -245 -244 -195 -255 147 242 -367 144 -261 -236 -202 138 -254 0
-235 -375 -367 150 147 -246 -245 415 -261 -202 264 -136 -331 0
-243 -382 144 141 -261 -226 -219 -375 156 -367 -235 -244 -259 -202 264 -331 0
-252 -225 367 159 -269 147 258 144 168 242 156 -270 -250 -246 -202 138 -254 153 0
-117 267 100 252 -263 367 242 -137 138 -254 0
375 250 -259 -140 -257 -155 162 -371 -261 246 -227 -242 243 -255 138 0
250 267 -168 147 144 -232 141 156 -150 -246 -242 270 -259 -269 162 249 138 -254 0
267 -261 168 256 245 -150 144 250 -232 156 -246 -242 -270 -259 -269 162 159 138 -172 153 0
-227 375 159 -146 144 -231 -371 -232 -269 141 -140 -261 246 -242 -270 250 267 -257 162 -259 138 211 0
156 168 -147 -259 -144 -242 246 -270 -372 -250 -257 162 138 247 0
-259 -367 156 -243 150 -246 375 -144 -219 162 264 -331 0
-244 -263 156 -259 -371 168 -147 -141 144 367 120 242 -257 138 -254 0
-261 375 -242 255 -150 144 -259 -269 -168 -246 156 -270 250 267 162 159 138 247 0
-243 -147 156 268 -259 -244 367 144 -168 -148 -371 242 -257 138 -254 0
-272 -259 393 -386 261 -144 -150 141 156 258 -242 270 267 162 249 138 122 0
-259 250 -252 -242 -261 168 156 270 -386 162 249 138 0
-259 -252 270 -261 156 168 -242 -235 162 249 138 0
123 261 147 156 -144 168 -259 -242 269 -270 16 -372 257 159 138 -172 0
126 -245 156 141 272 257 -219 147 168 -270 -367 -259 -269 162 250 138 -254 211 0
-168 385 -155 -259 121 270 -144 249 247 0
-259 250 -261 -192 156 208 -263 267 -242 252 100 270 147 162 249 264 138 211 0
372 257 -155 156 248 243 270 -259 -266 250 162 249 247 0
-259 250 -261 267 208 156 252 100 -374 -242 -263 270 147 162 249 264 138 211 0
250 257 -261 -256 267 156 144 -374 -242 270 -259 -146 162 249 138 -181 0
-252 -235 -333 -263 -261 156 -195 113 -367 147 168 250 -259 -219 -245 162 264 -331 0
-221 -375 -259 -261 -137 -147 243 -252 -144 -242 -333 -202 138 0
-245 123 -243 147 242 -144 367 156 -168 -259 138 -254 0
-234 126 246 -232 -155 -257 -260 -162 -259 -141 0
126 -141 -155 246 -374 -232 -257 -260 -162 -259 0
126 -232 -259 -333 243 -233 -374 246 -155 -257 270 -221 0
256 168 393 -374 246 144 -269 141 -242 156 147 -257 270 -259 249 138 122 0
-259 -141 267 -242 119 -232 -155 147 -257 270 -162 249 138 -254 0
256 -259 -232 -141 -269 -137 -242 156 147 -257 270 -162 249 138 -254 153 0
-245 -375 -192 147 -144 156 -259 367 168 242 -141 -261 -263 162 138 -254 0
372 168 156 -263 -374 -242 270 -259 249 138 247 0
-242 168 -255 -195 156 -263 -259 270 374 249 138 -172 0
-250 -252 144 255 147 156 374 -242 257 270 -259 168 249 138 247 0
-259 -144 255 147 -263 156 -372 374 -242 257 270 -162 249 138 122 0
-252 126 144 156 -374 -381 168 -242 270 -259 138 0
369 -245 -243 270 -259 147 -219 156 -195 144 -231 -367 249 264 -331 0
-374 -243 -259 147 -367 -263 -233 252 -192 156 -140 -245 100 -219 -231 377 270 264 -331 0
-141 -263 242 -269 -257 367 156 -259 147 -270 -162 159 138 -254 153 0
-141 -252 -269 -257 -259 -367 156 -263 147 -270 -162 159 138 -254 153 0
-252 245 267 -259 -146 372 156 168 -255 -140 209 -242 243 138 247 0
-259 -252 16 269 -242 -372 257 156 147 -270 -162 159 138 -172 122 0
372 -245 141 -367 -263 168 156 -243 -259 147 264 -254 247 0
-259 -252 -242 141 -246 -140 269 156 147 249 138 -254 247 0
367 -245 150 -246 242 -263 147 -167 100 -259 156 138 -254 0
-144 385 -147 -137 -246 252 -259 -269 242 156 168 -140 243 -270 367 138 -254 122 0
-225 -252 147 156 268 168 -155 367 -259 267 -148 -195 -243 242 -371 -257 138 -254 0
-231 377 -140 -263 121 -372 156 -195 269 -243 -192 -259 168 -242 138 0
377 415 -259 -258 168 248 -420 121 156 -263 252 -367 264 -331 247 0
-263 -195 -393 -259 -111 156 168 -254 0
-244 -243 156 -259 -111 372 141 144 -254 247 0
372 370 -246 -259 147 156 150 -111 -254 247 0
-367 372 168 156 -246 -219 -259 -147 -252 264 -331 247 0
263 -367 144 -246 269 243 150 -226 -372 156 -259 249 138 -254 247 0
-176 -252 -256 -246 168 -259 -141 -148 144 156 -225 242 138 -254 0
-252 -232 269 -231 -146 -242 245 -410 121 246 267 -257 168 -194 247 0
-248 162 168 -79 -119 144 -371 326 261 -269 156 263 -148 -149 -242 -257 125 249 138 153 0
-372 -250 367 267 -102 121 242 -272 141 156 168 -246 144 -370 -248 269 -270 162 159 138 -254 0
267 -261 -242 168 -269 144 -248 -226 156 -150 -246 -270 256 250 162 159 138 -172 153 0
374 -248 156 -111 150 -141 -269 261 -147 -246 242 -186 162 249 138 -254 153 0
-374 126 156 125 367 147 113 -168 -248 -333 -246 242 -225 138 -254 0
-248 -119 -257 -255 156 -242 -140 270 249 138 0
-374 -252 -367 -257 -225 -204 -226 -219 156 -248 -162 264 -331 0
377 -243 156 -248 -195 147 -382 168 0
-372 -242 269 -257 268 -155 -148 -248 -371 138 0
224 -176 -248 156 144 -242 138 0
-418 -248 -225 -155 -242 138 0
-243 372 -367 141 246 -257 -148 -248 156 264 -254 247 0
-407 -367 156 -219 -248 -226 -246 100 216 150 -263 252 264 -331 0
-418 -225 -367 -227 150 415 377 268 -257 -263 252 156 -248 264 -331 0
-248 -418 -252 -225 -204 156 0
232 245 -141 144 156 147 249 138 -254 247 0
-252 -225 -261 367 147 150 -167 -375 -246 242 -202 138 -254 0
-375 -261 -147 248 144 -269 150 -168 -236 -155 -259 -242 -270 -246 -202 159 138 -254 211 0
267 -261 -375 -156 150 242 -270 -372 -246 -236 -180 -202 159 138 -254 122 0
-261 -156 168 144 242 367 150 -269 -236 -375 -147 -270 -246 -202 159 138 -254 122 0
-235 -375 268 -245 -261 -371 -167 -252 147 -227 -336 0
-252 -219 168 156 -269 371 141 -367 -375 -235 -261 246 -270 -257 162 159 264 -254 153 0
267 -261 147 168 367 -269 150 -375 144 -156 242 -270 -246 -236 -180 -202 159 138 -254 122 0
-234 243 -257 -375 -255 119 -140 246 -386 -261 -202 0
-225 -261 147 168 144 367 -269 -141 150 -236 -375 -156 242 -270 -246 -202 159 138 -254 153 0
-244 -225 -202 -375 144 371 -156 -141 246 -261 -257 -242 -194 0
-375 -242 156 144 168 258 371 -141 -252 246 -261 -270 -257 -202 126 138 153 0
-235 -367 -167 -219 -261 -375 150 -252 -246 -202 264 -136 -331 0
-375 372 -270 168 -147 257 162 159 138 -254 247 0
-244 -375 -372 -242 269 144 -235 -261 -194 0
-375 -245 -261 270 -263 168 374 147 -242 -202 249 -194 0
-235 -374 -147 -141 -375 -261 -260 126 0
-375 -235 -372 -261 -252 -167 269 147 -245 0
-235 -243 -261 -242 268 -336 -140 -375 -227 -371 138 0
-375 -248 268 -155 -235 -148 -242 -371 -261 -257 138 0
372 16 -375 -144 -270 168 -242 147 257 162 159 138 -172 247 0
372 -261 -375 144 168 -270 -147 -242 -141 257 162 159 138 247 0
-374 -252 -261 270 -375 -242 168 -235 126 -194 0
-375 372 -243 -242 -144 270 -168 147 -140 257 162 249 138 247 0
372 267 -375 245 168 144 156 -242 -270 209 -146 -259 257 162 159 138 247 0
-375 372 -141 168 144 -242 -270 147 156 -259 257 162 159 138 247 0
-248 -245 -219 -235 -367 156 -375 -261 147 264 -331 0
-381 -202 -367 -259 -375 -252 156 -219 144 -235 168 -140 113 -261 -333 264 -254 0
250 -368 -371 -257 -375 243 -140 246 -261 -255 -202 0
-263 -147 -202 -221 243 -192 -144 -333 252 -375 -261 0
-412 -235 -333 -221 -263 -192 243 -375 252 100 0
-243 -375 -144 367 -263 168 -261 -259 -192 -147 242 -202 138 -254 0
-375 -263 -259 267 156 168 144 257 242 -192 -261 -256 -176 245 367 162 138 -254 -181 0
-374 -375 -261 270 -242 -252 -233 168 -235 -194 0
-371 -225 -259 -236 -375 -269 -155 -168 -140 -261 246 -242 -270 144 250 -257 -202 159 138 211 0
-375 -373 -231 -235 -225 -370 0
-235 -261 -259 -140 100 -375 -263 -192 -243 156 252 -231 -242 138 0
-375 -393 -261 -195 -219 -367 -235 264 -331 0
-374 -393 -235 -195 -375 -261 -233 270 0
-370 -375 -195 168 -252 -225 -243 -235 -261 0
-374 -375 242 -233 -255 -235 243 -140 367 -261 270 -236 -202 264 138 -172 0
256 -146 156 -375 372 -242 267 243 259 257 162 -194 247 0
-375 -370 243 -261 -368 -255 -235 209 -140 267 245 270 249 0
372 -261 141 -242 -252 144 168 -270 -147 -140 -375 257 -202 159 138 247 0
-242 -375 168 -202 156 144 141 -140 371 -269 258 246 -252 -270 -261 -257 126 138 153 0
-407 -370 268 -336 -227 -261 -371 -375 -202 0
-407 -370 -202 121 269 -375 -261 -372 0
-145 -375 -261 -147 -235 0
-244 -375 144 168 -192 -263 -242 -261 374 270 -202 249 -194 0
-234 -244 144 -333 -140 -261 113 -386 -242 -202 -375 138 -254 0
-370 -225 -261 -252 -226 -235 -411 -375 168 -242 249 -194 0
-245 -235 147 -375 168 -261 -219 -252 -367 264 -331 0
-375 -243 -219 -252 -261 -195 -235 168 -367 264 -331 0
127 372 -252 -219 -261 144 168 -270 -147 -367 -375 257 -202 159 264 -331 247 0
372 -261 156 -252 144 168 -270 -242 -375 257 -202 159 138 247 0
385 -261 250 -155 -375 -227 -144 -336 246 -168 -259 162 0
-333 -375 369 -235 -221 -192 100 -176 -242 -263 -261 252 250 144 243 -194 0
-375 -261 -150 -236 -246 242 -270 -372 -156 267 -202 159 138 -254 122 0
-261 -156 -150 -269 -236 -375 -246 242 -270 -225 -202 159 138 -254 122 0
-375 372 144 156 147 168 -225 -261 -246 -242 -270 -150 -141 -202 159 138 -254 247 0
-235 -261 -150 -367 -141 -375 -202 264 -254 0
-375 -412 -141 -150 -261 -235 0
267 -226 -242 -266 -232 -252 -385 168 -261 -150 -270 -269 250 162 159 138 -172 211 0
-385 261 -232 -224 -167 243 -140 -246 269 -252 -137 -242 -270 -372 162 159 0
267 -370 -255 -232 118 -140 243 -260 -385 249 0
-234 126 147 -232 -269 -374 393 -137 144 -150 141 -246 156 -242 270 -162 256 -385 138 122 0
377 -385 156 -243 150 -246 -263 168 -195 0
-252 -385 -382 156 147 -242 168 138 0
-336 -52 168 269 268 246 121 -227 -252 -242 -232 -385 -194 247 0
-252 415 -167 -385 -367 -246 269 150 121 156 264 -331 247 0
-225 115 147 -385 -167 -176 -111 144 -381 -252 156 -254 0
377 -385 -140 -243 -263 156 -192 -242 -195 168 138 0
-255 -232 242 -137 -372 -385 269 -140 243 121 138 -254 0
-385 377 156 -195 150 -232 -263 -257 -111 168 113 -254 0
372 -385 -219 -367 147 156 150 -246 -225 264 -331 247 0
-226 -382 150 -111 -385 -257 -252 156 168 -254 0
-232 -385 -226 100 -246 -263 252 267 0
-226 -385 243 -407 -232 -221 -333 0
-232 -258 -385 -182 -225 -219 -367 -226 247 0
-423 -381 162 -140 250 -235 144 -261 246 -242 113 -257 -333 138 0
-245 -385 -168 -144 -242 113 -140 -333 147 138 0
113 -333 243 -140 -156 372 -144 247 0
113 372 -111 243 -140 -254 247 0
115 -252 168 -156 -246 -367 144 -195 113 150 -225 264 -254 0
113 -252 156 242 -148 243 -371 367 -333 -259 -257 268 -140 168 138 -254 0
-236 -269 -374 -147 -156 367 242 -260 -246 162 249 138 -254 122 0
-245 242 250 367 156 -236 246 -261 -270 147 -269 -257 -202 126 138 -254 122 0
-245 242 147 250 367 156 144 -236 246 -261 -270 -269 258 -257 -202 126 138 -254 153 0
-236 250 -147 243 -167 -140 141 252 -269 144 168 -261 -246 -270 -150 256 -202 159 153 0
-236 126 168 -147 242 -270 367 258 257 162 -269 138 -254 153 0
-236 126 147 144 -270 367 242 257 162 -269 138 -254 122 0
-236 242 367 -387 138 -254 0
126 -374 -144 -242 -261 113 -333 147 -235 -156 -140 -245 270 -236 138 0
-252 113 144 -387 -367 -333 -236 -195 -244 -219 168 264 -331 0
-370 -244 243 -236 144 -387 -140 -333 113 267 -242 -194 0
-236 -387 113 -257 -140 243 -119 0
126 -374 168 -261 113 -144 -156 -252 -242 270 367 -333 162 -236 138 -172 0
-236 375 269 -150 -252 -266 259 144 168 -245 -270 -372 -242 162 159 138 -172 0
-324 267 144 259 -263 -150 141 156 -269 -246 -242 270 374 250 162 249 138 -254 0
374 -269 147 -245 242 261 -186 -259 -246 156 -219 -180 162 249 138 -254 122 0
-111 374 144 168 -195 -243 261 -269 -186 -248 -246 242 156 162 249 138 -254 153 0
256 257 168 374 -245 144 -242 269 147 -186 261 -372 162 249 -194 0
250 257 144 100 156 -242 252 -261 -269 270 374 -266 162 249 138 153 0
374 -269 -242 243 -245 -140 -263 -375 -144 168 -156 147 270 257 162 249 -194 0
250 257 -243 -242 -140 -195 168 -261 156 270 374 -269 162 249 138 153 0
250 257 367 168 -141 156 144 -261 252 270 -147 374 -269 162 249 138 -254 153 0
374 147 -225 -248 156 -148 267 -242 -371 270 268 -257 249 138 0
-234 -367 -111 -245 150 147 -269 -168 261 -156 -246 -137 -180 -386 162 138 -254 0
-367 250 -259 -260 -375 -263 156 -219 -252 240 168 -261 -235 -386 162 249 264 -331 0
250 257 144 168 -252 -242 -261 -156 -140 -147 270 -386 -269 162 249 138 0
250 257 168 144 -252 156 -261 -242 -147 270 -386 258 162 249 138 153 0
126 242 -269 246 -261 -270 250 267 -257 147 162 138 -254 122 0
-225 367 159 242 246 -168 -270 -372 -250 -257 147 -202 138 -254 122 0
372 -225 -219 147 -367 -246 -168 -250 -202 264 -331 122 0
372 -250 -270 -246 147 -168 267 -202 159 138 -254 247 0
258 126 367 -270 168 -250 257 147 162 138 -254 122 0
258 126 -367 -270 168 -250 257 147 162 138 -254 122 0
250 162 147 249 138 -254 247 0
372 257 156 -242 243 267 270 147 256 250 162 249 138 247 0
-144 267 147 168 -141 261 -270 -242 372 257 162 138 247 0
-144 261 -168 -140 147 -270 -242 372 257 162 159 138 247 0
372 257 144 168 111 -270 -242 147 -141 250 162 159 264 138 247 0
261 372 -242 144 270 147 168 -141 257 162 249 138 247 0
261 372 -242 -144 270 147 168 -141 257 162 249 138 247 0
-374 372 156 144 256 147 270 168 -141 261 -242 257 162 126 138 247 0
372 257 -144 -140 147 141 270 168 261 -252 -242 162 249 138 247 0
147 -168 -270 -250 372 257 -202 159 138 -254 247 0
-269 -168 147 -246 -367 -270 -250 267 162 159 138 -254 122 0
-374 -370 -246 -168 270 -242 267 126 138 -254 0
-393 -225 -14 -168 367 147 -246 242 205 -254 0
-252 -324 144 -259 -147 -150 -140 141 156 -269 -246 -242 270 250 162 249 138 0
-252 126 168 -371 -367 156 -219 -269 -261 246 242 -270 250 -257 162 258 264 138 -331 153 0
126 -269 147 -144 257 -242 168 -270 367 258 -252 162 250 138 -172 153 0
250 -111 168 -245 156 257 147 -270 375 258 -252 162 159 -254 153 0
-252 372 -140 261 144 156 -246 168 -147 -367 -270 -259 162 159 138 -254 247 0
-252 -111 -269 144 -147 261 168 270 -367 257 162 249 -136 -254 0
121 -252 269 250 168 375 -270 147 -195 -367 -372 -219 -268 162 159 264 -331 0
-252 -374 126 -242 168 250 144 -261 -147 270 367 -156 257 162 -269 138 -172 0
-252 245 250 168 -144 267 209 -140 -156 -269 -242 270 -374 257 162 249 138 0
372 126 -374 147 -242 270 -141 168 261 -144 257 162 -252 138 247 0
-111 -252 156 -245 144 -246 168 147 261 242 260 372 162 159 138 -254 247 0
-111 -252 168 -244 375 -141 -147 -270 258 250 257 162 159 -254 153 0
-244 -261 367 -259 156 144 168 162 -252 242 138 -254 0
-252 126 -374 168 242 -141 367 147 270 -144 -250 257 162 -269 138 -254 211 0
258 -252 168 367 242 156 147 144 270 -250 257 162 249 138 -254 153 0
-244 -374 168 156 -252 -370 144 261 242 -269 267 270 367 257 162 126 138 -254 0
-261 -231 -252 144 -256 -242 -259 168 -155 -232 -246 250 162 -194 0
250 257 168 267 -386 209 -144 245 -370 -156 -242 270 367 -269 -252 162 249 138 -254 0
-252 267 -156 -256 -150 -242 -226 -246 39 250 -261 162 -194 0
-111 126 156 -261 -195 168 258 144 -243 -270 250 162 -252 -254 153 0
-144 267 367 168 -252 -140 -386 245 209 -156 270 -255 249 138 -254 0
-423 -261 168 242 147 -243 367 -225 -195 -252 -202 138 -254 0
74 -374 259 144 156 -372 -252 -242 257 270 168 -158 -266 -194 153 0
-374 -252 -219 270 -367 168 -233 144 -244 264 -331 0
-226 -225 -244 -367 144 -259 -219 156 267 168 270 -252 249 264 -331 0
-252 168 -111 -367 374 144 208 141 147 257 270 -269 249 -136 -254 211 0
-234 -333 -219 -252 113 -367 -233 270 -244 -162 264 -331 0
-252 126 267 -195 -374 168 147 -140 -242 270 246 -255 -257 138 0
-374 126 168 156 -252 147 16 -243 -140 123 242 270 -225 138 -254 0
372 126 -374 270 156 168 -252 -242 -259 138 247 0
-370 -252 -167 -225 -367 150 -219 -246 264 -331 0
-256 -252 113 242 -259 147 -195 367 156 -162 -245 138 -254 0
-252 -225 242 -144 -195 -162 367 147 -243 138 -254 0
-252 -156 246 243 367 323 -269 -257 267 -226 -270 -162 159 138 -254 211 0
123 -252 367 -259 269 267 -372 242 257 141 156 147 -270 -162 159 138 -254 -181 0
-252 -219 258 150 147 -225 -137 -367 144 -246 -167 156 -382 -270 159 264 -254 153 0
372 -225 147 168 -367 -252 -195 -243 -219 264 -331 247 0
415 -367 -252 -219 150 -246 121 -225 168 147 269 264 -331 247 0
-252 -225 168 -195 -367 -243 -370 264 -254 0
-252 -156 243 246 -368 367 -269 -257 -225 -226 -270 -162 159 138 -254 211 0
-225 372 -367 147 -219 168 144 -252 -244 264 -331 247 0
-252 242 243 -140 -255 -246 259 144 258 367 156 147 -270 -162 159 138 -254 153 0
-255 243 -252 -259 156 -231 367 242 -140 168 -372 269 138 -254 0
39 -252 258 243 -140 -226 259 -137 -255 -242 -146 -150 156 -270 -162 159 153 0
-243 -252 -370 -367 -225 168 -195 -219 264 -331 0
-252 -156 -367 -246 -269 147 -270 -162 159 138 -254 153 0
267 -252 -121 -258 168 123 -242 147 156 -167 138 0
-370 -252 -372 -242 121 168 269 -225 -194 0
123 -252 147 -137 -256 168 -372 -242 156 269 144 257 267 138 -181 0
-176 -252 -246 -256 242 -259 144 267 367 156 147 -162 138 -254 0
367 -252 -255 -259 -256 242 -224 -140 156 -246 168 138 -254 0
-244 267 -371 -148 -252 156 367 268 168 -259 147 242 144 -257 138 -254 0
-225 -244 267 371 -257 147 -367 246 168 144 -252 -259 156 264 -254 0
-252 367 -255 -256 -140 144 242 156 168 -246 -259 138 -254 0
-256 -252 150 -246 168 242 267 367 147 144 138 -254 0
-268 -252 121 -176 269 -243 -111 144 -195 147 -270 168 159 -254 247 0
-252 -156 367 -269 -246 -226 -263 147 -270 -162 159 138 -254 153 0
-256 -252 168 242 144 150 -372 -246 269 138 -254 247 0
-252 -176 156 144 150 242 -259 -256 168 -246 138 -254 0
-197 -252 -167 -395 0
-226 267 -372 -257 168 268 210 46 246 269 -146 39 -252 -227 -242 -194 0
39 257 269 -242 -146 -372 259 -252 -226 16 156 -270 -162 159 138 -172 0
39 257 -242 -176 -258 -146 -141 -137 -372 259 -252 -226 -270 -162 159 0
263 -324 144 -259 147 141 156 -269 -246 -242 270 250 267 -257 162 249 138 -254 122 0
263 -324 -374 144 -259 -147 -150 393 207 156 -269 -246 -242 270 250 -257 162 249 138 -254 122 0
144 -219 159 168 250 156 -367 375 -269 246 -270 -371 -257 162 263 264 -331 153 0
263 256 168 257 144 261 162 0
261 267 156 208 168 141 -140 121 263 374 -370 269 -242 270 256 -372 162 249 138 247 0
261 256 -121 156 263 -140 144 168 374 141 269 -242 270 162 249 138 247 0
263 -269 168 -244 -245 267 -367 -386 147 141 270 -250 257 162 249 138 -254 153 0
337 -324 263 144 261 -266 168 162 153 0
-324 250 243 -386 -373 144 -259 -266 393 207 -155 -269 270 263 162 249 122 0
-221 263 144 268 -257 243 -333 -269 -137 -367 156 -225 147 -270 -162 159 264 -254 153 0
372 263 -245 141 -111 150 156 -243 147 -270 168 159 -254 247 0
-269 263 367 -243 -147 -270 -162 159 138 -254 153 0
-269 263 156 -367 147 260 -270 -162 159 138 -254 122 0
-370 263 -255 150 121 268 -259 -372 242 269 208 367 156 243 147 -270 168 159 138 -254 122 0
-370 263 268 150 121 144 -259 -372 242 -176 269 -227 -336 367 156 243 147 -270 -250 168 159 138 -254 122 0
123 156 -140 141 -219 256 269 168 144 -367 121 261 246 -270 -372 -257 162 159 264 -331 247 0
256 144 263 -269 168 -270 159 153 0
256 -269 -226 259 246 39 -167 -141 -242 156 147 -257 270 -162 249 -194 122 0
256 242 144 258 -269 -374 -263 156 147 -255 257 270 -162 249 138 -254 153 0
337 358 263 256 -115 144 168 -270 159 153 0
256 -263 -269 -246 258 367 243 -147 -270 -162 159 -185 74 138 -254 153 0
126 -371 242 -367 -219 168 -261 246 156 -270 250 -257 162 -269 264 138 -331 122 0
242 261 -244 -141 144 168 -270 -147 372 257 162 138 -254 247 0
-269 242 -374 156 147 -263 257 270 -162 249 138 -254 122 0
372 367 242 138 -254 247 0
-144 126 147 -236 168 -269 -270 367 258 257 162 242 138 -254 153 0
74 -374 123 -225 367 -244 156 147 -141 270 -162 242 -158 138 -254 0
74 -374 252 367 121 -263 269 270 242 138 -254 247 0
126 -374 242 -263 147 -156 257 270 -162 -269 138 -254 211 0
-244 267 -372 -259 -195 147 144 156 269 123 367 242 -243 141 138 -254 0
-255 267 -156 -162 367 243 -226 242 -137 138 -254 0
-244 -225 -121 123 147 367 -258 156 242 144 138 -254 0
-226 242 367 -382 138 -254 0
-244 242 144 100 156 252 -367 147 113 -333 -246 -245 -263 -259 -140 138 -254 0
-226 252 -263 -246 242 -225 367 138 -254 0
-244 -263 -371 156 -259 -148 144 168 -243 -195 268 367 242 -257 138 -254 0
-269 250 -367 162 249 138 -254 247 0
250 257 374 147 144 -219 156 -243 141 270 -261 -235 -367 -269 162 249 264 205 -331 122 0
-269 250 270 -367 162 249 138 -254 247 0
250 257 -252 -261 -374 -147 -219 168 270 -367 -269 162 249 264 -331 0
250 257 -261 -374 -147 168 270 -367 -269 162 249 138 -254 153 0
257 126 -270 147 -367 -269 162 250 138 -254 247 0
372 -244 245 -263 -225 168 144 -270 147 -367 250 257 162 159 264 -254 247 0
-269 126 -147 144 168 -246 -270 -250 162 -367 138 -254 122 0
126 -381 -259 144 141 -219 147 257 -270 156 -245 -367 -269 162 250 138 -254 211 0
-168 144 -245 156 147 -246 -367 243 224 -333 -221 -176 -259 -254 0
113 -333 -367 162 -259 267 141 -225 -144 -250 -246 -219 -137 118 -226 156 264 205 -331 0
-144 -156 -219 -367 264 -331 0
123 -252 156 -367 261 141 -270 168 -140 -219 121 269 147 -372 257 159 264 -331 0
-111 258 -245 168 -270 147 -269 -137 -367 250 257 162 126 205 -254 153 0
-234 -111 156 144 -252 -386 -167 -244 261 -269 162 257 -254 0
-111 162 -263 144 -367 147 168 -270 -250 -141 372 -268 159 264 -254 247 0
-111 144 -252 374 -269 141 156 257 326 -260 168 249 -254 122 0
-111 156 -167 259 -245 144 -269 326 374 147 257 -252 249 -254 122 0
372 -245 -243 147 156 -111 -259 141 -254 247 0
137 -176 168 -239 -263 -225 369 147 144 -194 0
377 368 252 243 -263 -192 100 0
-226 267 368 -263 252 243 -246 100 0
-301 -324 -272 261 144 -266 168 0
-245 121 -336 269 168 -132 -372 147 268 -227 -371 0
240 -374 -155 156 -132 -259 367 168 -17 246 242 270 -257 126 138 -254 0
126 -242 168 -141 258 371 156 144 246 -261 -270 250 267 -257 162 -269 138 -254 153 0
250 162 -374 -147 270 367 -269 -144 257 249 138 -254 153 0
126 -374 242 367 -144 267 141 147 270 168 -250 257 162 -269 138 -254 153 0
257 126 168 -270 -147 -111 -367 -269 258 162 250 -136 -254 153 0
250 257 243 -146 -245 -144 -140 -168 -374 -242 65 -232 270 -269 258 162 249 -194 211 0
-324 250 263 -374 144 -259 -147 -232 393 207 156 -150 -246 -242 270 -269 162 249 138 -254 122 0
-266 263 168 -269 144 261 162 153 0
-324 267 144 259 -263 -150 141 156 -374 -246 -242 270 -269 250 162 249 138 -254 0
-144 -269 -168 147 -243 270 367 -250 257 162 249 138 -254 211 0
-269 -141 256 -137 -242 156 147 -257 270 -162 249 138 -254 122 0
-269 -141 -256 -137 -242 156 147 -257 270 -162 249 138 -254 153 0
-324 267 -168 144 147 -259 141 156 -150 -246 -242 270 -269 250 162 249 138 -254 0
-321 267 -337 -141 -259 156 -150 -246 -242 270 -269 250 162 249 138 -254 0
-324 250 -236 -261 -374 144 243 -147 -150 -140 141 156 256 270 259 -269 -202 249 0
-324 -269 261 -263 147 144 243 -374 259 -140 141 156 -150 -246 -242 270 267 162 249 -194 0
-324 250 -368 -261 243 -375 144 -252 256 259 -140 141 156 -150 -242 270 -269 -202 249 -194 0
-234 -144 -168 162 267 -140 261 -386 -242 39 -146 -370 257 -269 138 0
-269 168 -245 -111 374 144 208 141 147 257 -252 -260 326 249 -254 0
176 -269 -270 159 0
-155 156 263 -111 246 -243 -269 -195 144 150 -270 168 159 -254 153 0
377 -226 -263 -202 267 250 121 252 269 -372 168 -261 0
-374 -382 16 -252 123 -155 -243 -232 -195 -226 168 242 270 126 138 -254 0
-374 -224 -243 -233 -259 156 118 -381 -226 141 -225 267 270 -231 0
-231 -226 243 267 -259 -367 -140 113 -219 -333 -232 118 270 125 249 264 -331 0
-374 126 -140 242 118 243 267 -255 -260 367 -226 138 -254 0
267 -263 -246 -155 -146 -162 252 -232 39 -226 156 -259 -141 0
-263 267 -146 -162 39 -155 -226 252 -150 156 -259 -373 0
-221 -333 -263 243 -382 168 -226 252 0
377 -258 -226 -156 -146 -162 252 39 267 247 0
-381 -226 -167 -225 121 269 -252 -219 415 144 -367 -372 -176 264 -331 0
-256 -115 252 -263 -226 39 -146 267 168 0
-377 -231 267 -226 -372 -263 269 -242 -155 138 0
377 -333 168 267 -221 -232 -226 243 -263 -192 252 -259 0
39 267 -146 -162 -257 246 -226 269 -156 247 0
267 323 -257 -156 -162 -226 368 246 243 0
-226 147 243 -140 -263 -372 252 -219 269 -258 -268 393 -270 -367 121 216 100 159 264 -331 0
39 258 -242 -146 144 -148 -149 243 141 246 -255 113 -252 -140 259 -226 -257 156 -270 168 159 -194 153 0
377 252 -263 -226 168 267 -333 243 -259 -221 -373 0
-382 -226 -333 419 -257 246 -221 243 0
-226 -385 243 -221 267 150 -242 -246 -255 -232 138 -254 0
407 250 267 -232 -259 -225 -412 125 270 162 249 0
126 -374 144 -259 263 156 147 372 267 -176 -242 257 270 -250 168 224 138 247 0
252 375 250 -227 267 -263 -225 100 -371 -370 0
372 -252 -242 144 -150 -140 -370 168 -146 261 -156 39 -270 -246 267 162 159 138 247 0
-370 261 39 -115 144 -146 -270 257 162 159 0
-144 267 -370 -156 252 -186 100 -263 374 249 0
267 -370 -150 -259 326 374 -155 -256 144 39 -146 367 156 -246 -162 249 138 -254 0
-370 121 252 -186 269 267 -372 374 -263 -192 249 0
-370 123 -146 -150 39 -259 -252 -372 242 269 367 156 147 -270 -162 159 138 -254 0
372 -252 144 -242 -176 324 259 -167 -137 -370 39 -146 257 -270 159 247 0
-144 -162 267 -377 -263 -370 0
-244 -333 156 115 144 367 141 168 -259 113 242 -263 -370 267 -252 138 -254 0
-377 -370 -257 267 -226 -146 -148 39 269 -371 -263 100 247 0
-370 252 269 121 -263 371 -372 267 246 -257 0
-370 39 -146 -246 144 150 242 269 -243 367 156 263 249 138 -254 247 0
-225 -263 -221 100 -367 144 150 -370 -246 252 -333 243 -244 -176 264 -254 0
-141 -162 267 150 -259 242 144 -381 -370 -176 367 156 -257 138 -254 0
-368 -255 243 246 -370 -140 -258 -371 -225 -257 247 0
-225 -370 121 269 -336 -227 -371 -372 268 0
-231 372 -263 -141 -259 156 -367 147 168 -270 -250 144 -268 162 159 138 -254 247 0
-245 -263 -242 168 372 156 147 -231 -371 268 -148 -259 -257 138 247 0
372 -367 415 -219 -257 245 243 121 246 210 269 263 -270 168 159 264 -331 247 0
-176 123 -147 -367 141 -140 -259 -219 -244 144 372 -255 156 -246 113 264 -331 247 0
-225 -244 -263 156 267 168 -371 147 -259 -148 367 268 242 144 -257 138 -254 0
-145 -377 -263 -147 120 -371 -257 0
337 -324 -150 144 -266 -259 -141 156 -246 -242 270 250 267 162 249 138 -254 247 0
-324 -266 263 -269 256 255 207 393 122 0
-324 267 -263 144 -150 -141 -246 -256 270 -242 249 -194 0
-324 337 -242 263 144 -140 -374 -243 -261 156 259 -246 270 250 162 249 138 -254 153 0
-324 337 144 156 259 263 256 153 0
-324 337 -242 141 144 259 156 -150 -246 -269 270 250 267 162 249 138 -254 153 0
-324 337 39 267 -141 -146 252 -226 -242 -150 244 144 -155 156 168 -246 270 -232 249 138 -254 153 0
337 -324 -386 -373 263 144 -259 -147 -140 -150 -243 -155 -246 -242 -260 250 162 249 138 -254 153 0
-276 -324 -314 321 259 -266 -284 168 156 0
258 -141 -367 147 270 168 -250 162 249 138 -254 247 0
267 375 -242 156 -146 168 39 257 -252 -261 -226 -270 258 250 162 159 138 153 0
-370 -176 -246 -146 252 144 -121 -372 242 39 -258 150 156 367 -270 168 159 138 -254 122 0
372 267 -232 246 245 -257 268 -148 -231 -259 -182 -146 -227 247 0
252 39 -182 -156 -162 -140 -146 245 -242 113 267 -263 269 138 247 0
39 -156 -146 -257 -226 243 246 269 263 -270 -162 159 247 0
-235 -371 250 -248 -148 -245 -140 -387 -144 156 -269 -242 -270 -119 -257 162 138 122 0
-144 -374 252 -263 -141 246 270 -257 126 0
-144 -374 245 -141 246 270 267 -257 249 0
-144 -141 -261 371 245 246 267 250 -257 162 0
126 -374 -210 147 168 144 -141 -269 261 -263 156 -246 242 270 162 -225 138 -254 0
-144 -141 -371 -227 -336 0
-261 -242 168 -269 371 -141 156 246 -144 -270 250 267 -257 162 159 138 153 0
-144 -141 -226 -372 -258 39 -146 246 -227 267 -257 0
-141 -147 121 -372 0
-225 156 -246 -259 -144 -367 168 -141 -263 242 138 -254 0
-225 -232 100 156 -246 -263 -259 -367 -144 -141 -167 242 138 -254 0
-144 -141 -147 0
-234 -252 168 -372 -386 -258 -242 -141 123 -144 138 0
-245 -263 -242 147 168 372 -259 -144 -141 138 247 0
-144 156 -263 -141 -367 147 168 -270 -250 372 162 264 -254 247 0
-144 156 -141 -367 147 168 -270 -250 372 257 162 159 264 -254 247 0
-141 -144 -219 -367 264 -331 0
385 -141 -144 -367 -155 -259 -254 0
-141 -245 -144 -246 -242 138 -172 0
-225 -141 -257 -263 168 156 147 371 -367 -259 246 -144 264 -254 0
-144 -263 -141 -148 168 156 -225 147 -371 367 -259 242 -257 138 -254 0
-144 -141 -370 -225 0
-141 -231 -259 -144 147 -246 150 -225 156 367 242 138 -254 0
-263 -144 -257 -242 -141 100 -259 156 267 246 252 138 0
-263 267 -141 -259 -144 -242 168 252 156 -246 138 -254 0
-263 -144 -257 100 156 -141 -259 252 246 248 0
-232 272 156 -263 252 -259 246 -144 -141 371 -257 0
372 -147 -141 -367 -244 144 156 -259 -246 264 -254 247 0
-144 252 -263 -226 267 -246 -141 270 -192 249 0
-144 -141 -232 -259 -231 -226 -407 0
377 -141 248 -147 -257 -259 100 252 -263 246 156 0
-242 257 -259 147 -263 156 -372 374 -141 -266 270 -162 249 138 122 0
-252 367 -141 156 123 147 -259 -245 242 -144 168 138 -254 0
367 -263 168 267 -144 242 -141 156 -246 -225 -259 138 -254 0
-144 -263 119 267 252 -141 100 246 -370 -257 0
-141 -258 123 -372 156 -144 -242 -246 267 138 -254 0
-141 -263 -258 -162 -257 246 252 247 0
-239 -377 -144 -141 0
39 -232 -192 252 -263 -370 -146 -144 -155 -259 -141 267 100 0
-141 123 -176 -258 -239 -372 242 257 111 156 -263 147 -270 -162 159 138 -254 -181 0
-252 156 269 -257 -141 -367 121 147 -270 -162 264 -254 247 0
-252 -232 -225 -259 -167 -155 -141 -367 -144 -246 -254 0
-231 147 168 -245 269 -259 -141 -246 -252 156 242 -372 138 -254 0
-144 -141 -146 -155 -52 -259 267 209 245 -232 246 -227 -257 0
-210 -267 168 242 123 -270 -246 -372 -250 -258 -141 -202 159 138 -254 0
-210 -141 156 -245 168 -252 -256 144 -259 -246 242 138 -254 0
-210 -252 -225 168 -141 -256 -259 144 156 -246 242 138 -254 0
-210 -141 -259 168 -263 -225 266 144 156 -246 242 138 -254 0
-141 245 150 144 -242 269 -257 367 156 147 249 138 -254 247 0
-374 -381 147 -176 123 -141 144 -225 -210 156 242 270 126 138 -254 0
-162 -141 267 245 -155 209 269 123 -232 247 0
-141 -162 -155 246 -257 269 123 -232 247 0
192 -269 -268 0
-261 -144 250 245 246 -257 -168 267 162 0
267 -261 -156 250 245 246 371 -144 -257 162 0
-374 126 -381 144 243 -261 245 -195 267 -333 -242 270 -221 250 162 113 -194 0
121 263 243 245 269 -367 -144 -270 -162 159 264 -254 247 0
-367 243 246 -372 245 210 269 -257 263 249 138 -254 247 0
-182 324 243 -266 245 -258 -156 263 147 -270 -162 159 247 0
-321 342 325 -176 259 -284 263 -102 168 124 261 156 162 0
337 -266 168 144 263 261 162 153 0
123 245 248 -246 269 267 168 -141 -252 156 242 -372 -266 249 138 -254 247 0
337 321 -284 -266 263 168 -270 159 153 0
-210 261 147 168 -374 -393 144 -269 156 -246 242 270 267 162 249 138 -254 153 0
-210 261 -374 147 168 144 -393 -269 -263 156 -246 242 270 267 162 249 138 -254 0
-244 -162 -252 113 -226 -367 -233 156 147 -333 270 246 249 264 -254 247 0
-243 -263 -257 -140 -156 267 371 -242 246 -144 138 0
113 377 -140 243 252 -192 -144 -263 -333 100 -156 0
-231 377 -259 268 -336 243 -227 -232 -333 -371 -221 252 -263 100 0
-374 121 -372 -233 -187 270 -250 269 0
-374 -393 270 -372 -233 269 -195 121 0
-234 -244 -259 -219 144 -367 156 -243 -386 141 123 264 -331 0
-225 -121 -242 168 267 -239 147 156 -192 -258 123 138 0
-244 -147 144 123 -195 156 141 -246 269 -243 242 -372 138 -254 0
-423 -244 -235 -242 144 -194 0
-372 121 -144 -156 0
-301 -284 261 -272 -266 168 0
-301 -284 321 261 -266 168 0
176 -284 -272 261 0
-374 -221 270 377 -233 243 156 -259 -333 -231 168 -382 -226 0
-276 342 156 259 -284 263 168 261 321 162 0
-127 -221 100 -192 -263 243 252 -261 0
-127 -231 243 -221 -232 -261 0
-301 -324 -191 263 259 -266 292 168 156 0
-242 -263 269 -246 -259 -219 249 138 -254 247 0
-255 252 -162 -263 269 -147 243 247 0
-182 -242 -263 -176 -256 -258 -246 324 249 138 -254 247 0
-263 367 -246 249 138 -254 247 0
243 -147 -255 -252 -257 -242 258 246 -259 -266 -270 -162 159 138 153 0
-242 243 -259 -269 246 -263 256 -147 -270 -162 159 -185 138 122 0
-224 -232 -259 -162 -155 -256 246 -147 -257 0
-242 243 -256 -259 -252 246 -269 -147 -270 -162 159 -185 138 211 0
244 -242 -256 -259 -269 246 -263 243 -147 -270 -162 159 -185 138 -254 211 0
-162 -263 -259 -147 -256 -176 246 -242 -257 252 138 0
-242 -263 -269 246 -259 243 -147 -270 -162 159 -185 138 -254 122 0
-371 243 -368 -269 -266 -147 -270 -162 159 -185 153 0
-162 -252 -147 -256 -176 -259 242 -149 -257 -371 367 138 -254 0
-371 367 -256 242 -259 -269 -149 -252 243 -147 -270 -162 159 -185 138 -254 211 0
-162 -252 -242 -257 243 -147 246 367 -255 -176 -256 138 -254 0
-255 252 -263 246 243 -257 -147 -162 0
-269 -263 246 367 243 -147 -270 -162 159 -185 138 -254 122 0
-147 -162 -257 -259 269 246 -155 -232 247 0
-232 243 -155 -259 269 246 -266 -147 -270 -162 159 247 0
-252 -147 -162 -258 -256 -242 -259 138 247 0
-182 243 252 -232 -258 246 -385 -147 -270 -162 159 247 0
-242 -263 269 246 -259 243 -147 -270 -162 159 138 247 0
321 243 259 324 -182 -258 246 -266 -147 -270 -162 159 247 0
-182 324 -147 -162 -224 -258 246 -256 -257 247 0
-252 -242 259 269 246 243 -147 -270 -162 159 138 247 0
252 -147 259 246 269 243 -263 -270 -162 159 247 0
-162 -255 -259 -176 -242 -246 -219 243 -147 -256 138 -254 0
-269 263 -246 367 243 -147 -270 -162 159 138 -254 122 0
-224 269 -256 -147 -162 -255 243 247 0
-255 -224 -162 243 246 -256 -147 -257 0
65 -232 -257 368 -155 -259 246 243 -147 -162 0
224 -255 -162 -176 243 -257 246 -242 -259 -147 138 0
-269 263 246 -259 367 243 -147 -270 -162 159 138 -254 122 0
252 243 -255 269 -259 246 -256 -242 -147 -270 -162 159 138 247 0
263 -147 -259 246 269 -242 243 -270 -162 159 138 247 0
-385 113 -263 -246 243 156 -195 -111 150 168 -254 0
-269 144 -259 -246 -263 242 243 141 -111 156 150 -270 168 159 138 -254 211 0
-269 -367 -246 243 -147 -270 -162 159 138 -254 122 0
232 255 121 269 -246 -111 -140 141 156 144 150 -270 168 159 -254 247 0
-140 243 -263 -255 246 -259 -111 -367 -269 46 210 156 144 -270 168 159 -185 138 -254 153 0
243 144 -259 246 -111 -367 -269 141 -263 156 150 -270 168 159 -185 138 -254 153 0
-140 243 246 -111 -269 263 150 -270 168 159 -254 122 0
243 -147 246 -111 -367 263 -270 -162 159 -136 -254 247 0
-269 259 246 -111 243 141 156 150 -270 159 -254 122 0
249 138 -254 247 0
-385 -232 -263 100 250 -226 -269 252 -266 162 147 -246 0
-185 -242 -259 -141 -150 -269 159 -266 -263 162 147 -246 -249 138 0
-266 -252 242 -141 -150 -269 159 -259 367 162 147 -249 138 -254 0
-176 -256 242 -252 -259 156 144 367 159 168 -249 138 -254 0
367 242 144 156 168 159 266 -259 -263 -246 -249 138 -254 0
-176 -158 144 -242 159 156 168 -259 -256 -263 -246 -249 138 0
-141 367 -269 159 -150 -263 -259 162 147 -246 -249 138 -254 0
-236 -243 -195 -150 -269 168 159 -263 367 -259 -202 147 -246 -249 138 -254 0
-259 -243 159 -263 367 -269 162 147 -246 -249 138 -254 0
-141 -263 -150 -259 159 269 -242 -246 -249 138 247 0
269 -141 -263 159 -150 367 -259 -246 138 -254 247 0
-243 367 159 -150 -259 269 -263 -246 138 -254 247 0
-259 -243 159 367 -263 162 147 -246 138 -254 247 0
-242 -266 -259 -150 -269 -159 -140 -263 -243 162 147 -246 138 0
-242 -243 -259 -159 16 -150 -263 -269 162 147 -246 -249 138 -254 0
-231 385 -155 -150 -159 -259 0
-252 -243 -150 242 -159 -259 367 -269 162 147 -246 138 -254 0
-242 -250 -219 150 -202 -246 138 -254 0
-266 261 250 -259 -269 -226 252 39 168 -155 156 -146 -232 -159 -263 -141 162 147 -246 0
-141 -242 168 -219 150 -269 -159 156 -263 -259 162 147 -246 138 -254 0
385 123 -159 -155 -141 0
-252 -141 39 242 -370 168 156 150 -269 -159 -259 367 162 147 -246 138 -254 0
-141 367 -269 150 168 -159 156 -263 -259 162 147 -246 138 -254 0
-123 -375 -370 -266 -269 -146 39 -259 -202 147 0
-259 -243 -269 -159 156 150 367 -263 162 147 -246 138 -254 0
-141 -156 -159 0
-259 -243 -159 -263 367 -269 162 147 -246 -249 138 -254 0
-242 -243 -259 -159 16 -150 -263 269 -246 138 -172 247 0
-243 -263 -159 -150 -259 367 269 -246 138 -254 247 0
-243 -263 -219 150 -159 -258 -182 -259 -242 -246 138 -254 247 0
-252 123 122 -372 242 150 -243 -159 367 269 -246 138 -254 0
-259 -243 367 -263 162 147 -246 138 -254 247 0
-245 -146 159 -242 -249 -194 0
-385 -141 263 -269 39 -232 250 -150 -226 -146 -224 162 147 -246 153 0
-123 -266 -146 250 -269 -226 39 263 -259 144 162 153 0
-123 -224 -259 -146 263 250 147 -226 144 -269 39 162 153 0
-242 -243 -259 -150 159 263 -269 162 147 -246 -249 138 153 0
231 242 -141 -266 -150 -259 -269 159 263 367 162 147 -249 138 -254 153 0
-141 367 -259 -150 242 -269 159 263 -232 162 147 -249 138 -254 153 0
-117 -266 144 -269 263 -375 162 153 0
-141 367 -259 -150 159 242 263 -269 162 147 -246 -249 138 -254 153 0
-373 -370 -259 -266 -375 -269 -150 263 -146 -155 39 162 147 153 0
-123 -375 147 -370 -269 -259 39 -146 -272 162 0
-375 -243 -195 242 -150 156 159 -269 263 367 -259 162 147 -249 138 -254 153 0
412 -375 162 -269 -243 -266 144 -195 263 159 -370 -249 153 0
123 263 156 -141 -259 150 159 -269 -370 367 162 -246 -249 138 -254 153 0
-370 -375 -269 263 -266 -156 -141 162 153 0
-259 -243 159 263 367 -269 162 147 -246 -249 138 -254 153 0
-124 -242 159 156 -249 138 0
-141 269 -259 -232 370 -150 -155 245 247 0
-232 263 269 -385 144 -117 250 -141 256 -242 -219 162 147 -246 138 -254 247 0
256 -141 -117 407 -155 -232 250 -150 -219 269 263 -242 -259 162 147 -246 138 -254 247 0
-259 -243 -219 159 263 -242 269 162 147 -246 138 -254 247 0
-141 367 -150 242 -372 159 269 263 -259 162 147 -246 -249 138 -254 122 0
-243 123 269 156 242 367 159 -195 -372 -14 -259 -249 205 -254 0
-259 -243 242 -150 159 263 367 -372 162 147 -246 -249 138 -254 122 0
-372 269 150 367 159 156 -259 -246 -249 -194 205 -254 122 0
-259 -243 367 159 162 147 -246 138 -254 247 0
-242 -370 -266 -269 -140 -150 -375 -159 263 -243 162 138 153 0
-259 -243 -242 -150 -159 263 367 -269 162 147 -246 138 -254 153 0
-243 -242 -258 -182 -150 -140 -159 370 -259 147 138 247 0
121 -372 -159 -150 269 0
123 -232 -259 -224 269 245 -155 250 -150 263 -159 162 147 -246 247 0
-370 -225 -141 150 -242 -159 -246 138 -254 0
-141 263 -242 250 150 -232 -269 -159 -259 162 147 -246 138 -254 153 0
-232 245 -141 -258 -155 -182 370 -159 -259 247 0
-385 263 269 -232 -224 144 -117 250 -141 -242 -219 162 147 -246 138 -254 247 0
-243 162 -150 242 -159 263 -259 367 -269 -245 147 138 -254 153 0
-266 -370 144 -375 -269 156 -243 263 141 -248 162 153 0
-248 -243 -370 -269 156 141 39 242 263 367 144 162 147 -246 138 -254 153 0
-259 -243 242 -159 -150 263 367 -269 162 147 -246 138 -254 153 0
-259 -243 242 -372 -159 -150 367 263 162 147 -246 138 -254 122 0
-370 -225 -141 -248 150 -159 -246 0
232 -141 -269 150 242 -159 263 367 162 147 -246 138 -254 153 0
-259 162 263 -155 -123 -269 150 144 -232 242 367 -245 147 -246 138 -254 153 0
-141 367 150 242 -159 263 -259 -269 162 147 -246 138 -254 153 0
-259 -243 156 -195 150 242 -269 -375 367 -272 162 147 -246 138 -254 0
-370 -407 -159 -156 0
-243 147 263 144 -370 -195 150 -375 242 -137 367 -117 162 -269 -246 264 205 -172 153 0
-259 -243 242 -159 150 263 367 -269 162 147 -246 138 -254 153 0
-141 123 263 150 -258 242 -159 -372 367 162 147 -246 138 -254 122 0
-267 -243 261 -195 -258 150 -372 -137 242 263 367 144 162 147 -246 264 205 -172 0
-259 -243 367 162 147 -246 138 -254 247 0
-226 -382 162 168 -263 -224 250 259 -269 252 -246 0
-370 39 -224 -269 252 100 259 -263 -146 261 162 -246 -249 0
-224 -141 -263 -269 39 252 250 -226 -150 -146 259 162 147 -246 -249 0
-226 39 -269 252 250 -141 -224 -150 -146 259 162 147 -246 -249 122 0
370 245 252 -258 -182 -263 216 100 -246 247 0
-117 267 252 100 -263 216 -370 -258 -246 247 0
-182 168 324 266 -263 252 144 244 -258 -246 -249 247 0
-375 -242 -263 269 252 -261 -141 -219 -202 -246 138 -254 247 0
244 -141 -242 250 252 245 -150 -263 259 -219 162 147 -246 138 -254 247 0
-242 162 269 263 -102 245 250 144 370 -141 259 -219 -224 -246 138 -254 247 0
-224 -370 162 39 261 324 -182 -146 -117 -258 168 263 -102 144 259 147 -249 247 0
-117 267 -261 269 250 -202 247 0
-226 39 -243 -224 -242 -269 -159 -150 -146 -140 -263 259 162 -246 -249 138 0
-242 -224 -226 39 -269 -159 -150 -146 -140 259 -243 162 -246 -249 138 122 0
-370 269 252 39 -263 -146 -159 -150 267 -246 247 0
250 -261 -202 -372 252 269 -159 -150 -263 -246 122 0
252 250 39 259 269 245 -263 -159 -150 -146 244 162 147 -246 -249 247 0
245 39 -102 -224 259 370 -146 250 -159 -150 263 269 162 247 0
-370 39 -242 269 263 -159 -150 261 259 -243 162 147 138 -254 247 0
-370 -261 -243 269 -242 -159 -150 -140 267 -202 147 138 247 0
159 -242 150 -246 -249 -194 0
250 147 -269 -263 150 -141 259 -242 162 -246 -249 138 -254 0
250 147 -269 150 -141 259 -242 162 -246 -249 138 -254 122 0
-141 147 150 -263 259 -219 -242 162 -246 138 -254 247 0
-375 -242 -148 -202 -256 -224 -261 -219 269 -246 138 -254 247 0
-242 -243 367 162 147 -246 138 -254 247 0
-244 -370 -254 267 -243 -150 159 242 367 -263 -246 -249 138 0
-370 39 -243 -263 261 -150 -146 159 242 259 367 -269 162 -246 -249 138 -254 0
-117 267 242 367 168 159 -261 -263 162 -249 138 -254 0
242 244 367 -261 -263 266 144 168 159 162 -246 -249 138 -254 0
-370 -141 168 -261 -263 -269 -150 159 242 259 367 162 147 -246 -249 138 -254 0
-243 147 -150 159 242 -263 367 -269 162 259 -246 -249 138 -254 0
-243 162 263 -150 159 242 259 367 -269 -245 147 -246 -249 264 -194 205 -172 122 0
-141 -370 -269 263 267 -150 159 242 259 367 162 -249 138 -254 122 0
-375 367 -269 -261 263 144 159 -137 -243 259 242 -195 -246 -249 264 205 -172 122 0
-243 147 159 242 -150 367 -269 162 259 -246 -249 138 -254 122 0
-252 -243 168 -258 -150 159 261 242 259 367 -372 162 147 -246 -249 138 -254 0
-252 -243 269 -150 159 261 242 259 367 -372 162 147 -246 -249 138 -254 0
-243 -261 -167 162 269 -150 159 -235 242 367 -372 -252 -249 138 -254 0
-372 -141 -258 168 -102 263 -150 159 261 242 259 367 162 147 -246 -249 138 -254 0
-372 147 168 -102 263 -150 159 261 242 259 367 -243 162 269 -246 -249 138 -254 0
-141 -375 -261 -235 -372 -150 269 0
259 -141 -372 263 269 -150 159 -261 242 -235 367 162 147 -246 -249 138 -254 0
-243 147 159 242 -150 367 -372 162 259 -246 -249 138 -254 122 0
-226 252 -236 259 367 -263 242 100 -202 -246 138 -254 247 0
367 -370 263 -269 -375 150 -201 -137 242 259 -141 162 147 -246 -249 264 205 -172 122 0
-258 147 263 -102 39 261 -370 150 -146 -201 -141 -137 242 -372 367 162 259 -246 -249 264 205 -172 0
367 -243 159 162 147 -246 138 -254 247 0
266 -243 -263 144 141 168 267 242 367 147 -246 138 -254 0
-252 -261 267 -243 367 242 141 147 168 162 138 -254 0
-243 147 -150 -159 242 259 367 -263 162 -269 -246 138 -254 0
-243 147 -150 -159 242 259 367 263 162 -269 -246 138 -254 122 0
-243 147 -258 263 261 168 -195 -372 242 259 367 144 162 -121 -246 138 -254 0
-243 147 -159 242 -150 367 -372 162 259 -246 138 -254 122 0
266 144 259 168 242 267 -176 150 -236 -263 367 -202 147 -246 138 -254 247 0
-243 -176 -236 168 267 -263 150 -159 242 259 367 266 -202 147 -246 138 -254 247 0
367 162 -261 -167 150 242 -263 -245 147 -246 138 -254 0
367 242 -261 168 150 -263 267 162 147 -246 138 -254 0
-176 -252 367 242 -256 -261 144 150 168 208 162 -246 138 -254 0
-176 367 -226 266 168 -261 -263 150 -159 -141 259 242 162 -246 138 -254 247 0
-235 -252 367 -372 168 150 269 242 -261 162 -246 138 -254 0
-337 147 -372 261 263 150 -159 -141 242 259 367 162 -258 -246 138 -254 0
261 -243 150 -159 263 242 259 367 -372 162 147 -246 138 -254 153 0
-256 162 242 -261 150 144 367 -245 147 -246 138 -254 0
-141 367 -261 263 150 -159 242 259 -269 162 147 -246 -249 138 -254 122 0
-243 147 263 150 -159 242 259 367 -261 162 -269 -246 -249 138 -254 122 0
-375 -235 -261 -141 -159 0
367 147 -372 -235 -261 263 150 -159 -258 -337 259 242 162 -141 -246 138 -254 0
367 -243 162 147 -246 138 -254 247 0
-141 -150 -259 -263 -245 159 -367 147 -246 -249 138 -254 0
385 -141 -155 -259 -150 -367 -254 0
-382 -367 159 156 -263 168 -385 -226 -246 -249 -254 0
-176 -381 -385 168 144 159 -252 156 -249 0
261 -141 159 -259 -269 -150 -263 -367 147 -246 -249 138 -254 0
-243 261 -269 168 -259 -150 -263 -367 159 147 -246 -249 138 -254 0
-243 261 -269 -259 -150 -263 -367 159 147 -246 -249 138 -254 153 0
-385 -367 -252 168 159 156 269 138 -254 247 0
-259 -141 159 269 -150 -263 -367 -246 138 -254 247 0
-243 -263 -195 168 242 121 -150 159 -259 269 -246 138 -254 247 0
-243 261 -263 -150 -259 -367 159 147 -246 138 -254 247 0
-167 -176 -252 -381 216 100 147 159 144 -382 -249 0
261 -141 159 259 -269 -150 -263 -367 162 147 -246 -249 138 -254 0
-367 -372 -252 269 -167 159 121 -249 264 -254 0
261 -252 269 259 -141 -150 159 -367 162 147 -246 138 -254 247 0
259 -141 159 -263 -150 261 -367 162 147 -246 138 -254 247 0
-158 -370 39 -146 -243 -140 267 -367 -249 264 -136 -254 0
375 -252 162 168 -385 159 156 -249 0
252 375 242 -263 -261 162 100 250 -246 138 -254 0
-259 -141 159 -263 -150 -261 -367 162 -246 -249 138 -254 0
-243 250 -195 168 -367 -259 -263 -261 159 162 -246 -249 138 -254 0
-243 -261 -259 -150 -263 -367 159 162 -246 -249 138 -254 0
-252 -141 259 -261 -150 159 -367 162 147 -257 138 -254 247 0
259 -141 159 -263 -150 -261 -367 162 147 -246 138 -254 247 0
-263 -243 -150 159 162 147 -246 138 -254 247 0
-381 -385 -245 147 144 159 156 -249 0
-385 -141 -269 261 263 -150 159 -137 -367 162 147 -249 -136 -254 153 0
-385 -141 269 156 -245 159 -367 147 -246 138 -254 247 0
-219 -141 -150 -367 264 -331 0
-141 -259 263 159 -150 261 -367 162 147 -246 138 -254 247 0
261 263 147 -195 -259 -243 -150 159 -137 -367 156 162 -269 -249 264 -136 -254 153 0
267 245 269 -195 -367 159 -146 -243 138 -254 247 0
-243 147 144 -195 263 261 159 162 269 -246 138 -254 247 0
375 -382 147 162 159 156 -385 -249 0
-232 -385 -381 162 159 375 144 -249 0
-381 375 -176 162 144 156 159 -385 -249 0
-141 -259 263 159 -150 -261 -367 162 147 -246 138 -254 247 0
-158 -243 -261 -259 -367 -140 250 267 -155 -232 -226 -146 39 162 -249 264 205 -254 0
-232 -243 -367 -137 -155 -261 144 -195 -269 -259 -235 -267 159 250 263 162 -249 264 -254 153 0
-232 -235 250 -111 -259 162 -254 0
-235 -375 121 -259 156 -219 -202 -243 141 -261 269 -367 264 -331 247 0
-226 39 156 141 -259 -243 -261 -150 -146 263 -367 159 162 138 -254 247 0
-141 259 263 159 -150 261 -367 162 147 138 -254 247 0
263 -243 259 -150 261 -367 159 162 147 138 -254 247 0
-141 259 -137 -269 -261 -150 263 159 -367 162 147 -249 264 -136 -254 122 0
-141 259 263 159 -150 -261 -367 162 147 138 -254 247 0
250 -243 -195 -269 259 263 -150 -261 -367 159 162 147 -246 -249 264 -136 -254 122 0
-243 147 -150 162 159 -246 138 -254 247 0
-226 252 156 -259 -367 248 -263 216 100 267 -246 138 -254 0
261 -141 -259 -263 150 159 -367 147 -246 138 -254 247 0
-226 261 -232 144 -225 -367 -269 -259 168 267 150 263 -201 -137 162 -246 -249 264 -254 153 0
-141 162 -155 263 -269 -259 261 -226 150 -201 -137 -367 -232 147 -246 -249 264 -136 -254 153 0
245 -232 267 -259 -155 209 269 -367 420 138 -254 247 0
261 -267 144 -367 168 -201 150 269 263 162 147 -246 138 -254 247 0
263 261 -111 -367 147 144 -224 168 -226 -269 162 -137 -136 -254 153 0
-261 -367 -259 -263 150 -141 159 162 -246 -249 138 -254 0
-232 -226 -367 -259 -261 -155 267 250 162 138 -254 0
-267 250 162 -224 144 -367 -231 -235 -261 -259 168 -269 263 150 -158 -137 -232 -246 -249 264 -254 153 0
-232 -385 -261 162 -367 269 250 138 -254 247 0
-261 -226 156 -259 -367 150 159 -141 162 -246 138 -254 247 0
-141 162 150 159 -367 -259 147 -246 138 -254 247 0
245 -367 162 259 -263 252 -141 150 -146 -201 261 267 -246 138 -254 247 0
-141 -367 259 261 245 150 -146 -201 252 162 147 -246 138 -254 247 0
-226 -367 -201 259 -261 -263 -141 -236 150 250 252 -202 147 -246 138 -254 247 0
250 147 -367 -261 -225 150 -372 162 269 -246 138 -254 247 0
-141 250 263 259 -261 245 267 150 -201 -367 162 147 -246 138 -254 247 0
-243 147 162 159 -246 138 -254 247 0
-243 -263 -245 -150 -159 -367 -259 147 -246 138 -254 0
-159 -367 -150 -219 264 -331 0
-382 -263 147 168 -243 -111 -259 -195 156 -254 0
266 -385 -367 -263 -259 -111 144 393 168 156 113 -246 138 -254 0
-385 -243 -263 -140 -111 -150 -159 -367 269 -136 -254 247 0
375 -252 162 -243 -111 -259 141 -140 168 156 -254 0
-367 -385 162 -195 -382 -111 -269 -243 144 156 263 -137 168 261 147 -136 -254 153 0
-243 263 -259 -111 -150 261 -159 -367 -137 162 147 -136 -254 247 0
375 -382 162 -111 141 156 -259 -243 147 -254 0
115 -261 141 -111 -243 -259 156 144 162 -249 -254 0
-243 147 -263 261 -150 -159 -367 -269 162 259 -246 138 -254 0
-245 -261 -263 141 -111 168 -202 -243 147 -254 0
-226 -225 168 162 -111 -263 141 -367 113 -261 -246 264 -254 0
261 144 -243 -111 263 168 147 -195 -367 156 162 259 -136 -254 247 0
-245 -261 162 -256 -111 141 144 -243 147 -254 0
-225 -367 162 -111 -243 144 -261 -137 141 -256 147 -254 0
-243 141 162 -111 168 263 259 156 -137 -367 144 267 147 -136 -254 247 0
-150 -243 162 147 -246 138 -254 247 0
-141 -367 -159 -219 264 -331 0
-259 -263 -245 -111 100 156 -167 150 147 -246 -254 0
-226 -382 -263 168 -111 -385 -167 156 150 -257 -254 0
-256 -367 156 -111 168 -259 144 -263 150 208 -246 138 -254 0
-141 -367 261 -263 150 -159 -259 147 -246 138 -254 247 0
-243 -195 -219 -263 150 -159 -367 -259 -246 264 -331 0
-243 261 -259 150 -159 -367 -263 147 -246 138 -254 247 0
-243 147 -219 261 150 -159 -367 -263 162 259 -246 138 -254 0
261 162 144 -367 -111 168 259 -225 150 -137 -263 -269 147 -246 264 -254 0
-261 -263 -219 150 -159 -367 -243 -202 -246 264 -136 -331 0
375 -252 168 156 162 -111 150 -259 -246 -254 0
-261 -263 156 162 -111 168 150 -259 -246 -254 0
-367 162 168 -252 -261 150 375 -225 147 -246 264 -254 0
-263 162 -367 -111 -261 150 168 -225 147 -246 264 -254 0
-252 147 144 168 156 -367 -111 -261 150 259 -267 162 -137 -246 -254 247 0
-263 -243 162 147 -246 138 -254 247 0
-385 -243 261 144 156 415 -195 263 150 -224 -367 162 147 -246 138 -254 0
-243 -367 -155 410 -195 150 -219 -259 -246 0
261 -367 -259 156 -225 -111 144 150 -137 263 162 147 -246 -136 -254 247 0
261 208 -259 156 144 -111 -367 150 -137 263 162 147 -246 -136 -254 247 0
261 -367 -111 263 150 -159 -137 -141 162 147 -246 -136 -254 247 0
-272 -243 -195 261 -111 -259 150 156 -367 162 147 -246 -136 -254 247 0
263 -243 -195 261 -111 144 150 -137 -269 -367 162 147 -246 -136 -254 153 0
-144 -156 -159 0
263 -243 -195 -111 144 150 -137 261 -367 162 147 -246 -136 -254 247 0
263 -243 -111 150 -159 261 -367 -137 162 147 -246 -136 -254 247 0
-259 162 -261 156 -111 150 -225 147 -246 -254 0
250 -261 -256 -259 208 156 144 -111 150 162 -246 -254 0
115 -261 -111 144 162 -259 208 150 156 -246 -249 -254 0
-256 162 144 -261 -111 150 -367 -137 -225 147 -246 -254 0
144 -367 -137 156 -261 -111 267 150 263 259 162 147 -246 -136 -254 247 0
144 162 -243 250 -195 -261 -111 263 150 -137 -269 -367 -267 -246 -254 153 0
-243 162 147 -246 138 -254 247 0
-242 -225 168 159 156 267 -146 -259 -263 -246 -249 138 0
261 243 367 -269 144 168 156 159 -263 267 -225 -17 -259 162 147 -246 -249 138 -254 0
-226 -242 168 -385 156 -263 267 159 -246 -249 138 0
225 367 -259 -263 267 168 156 159 111 -246 -249 138 -254 0
242 -263 168 156 -245 159 -259 367 -17 147 -246 -249 138 -254 0
266 367 144 156 168 159 -259 -263 -246 -249 138 -254 0
-144 -259 156 -263 -242 -255 243 168 -150 159 -246 -249 138 0
-267 243 -259 156 168 -269 -263 159 261 111 -150 367 162 147 -246 -249 138 -254 0
-242 -263 -259 243 -255 168 159 269 -246 138 -254 247 0
269 -255 -259 -263 367 243 168 156 159 -246 138 -254 247 0
255 261 367 -259 168 156 144 159 -263 -267 141 162 147 -246 -249 138 -254 0
-259 -144 159 156 -263 -242 269 168 -150 -246 -249 138 247 0
-176 243 -242 144 -255 267 168 -256 159 -146 -263 -246 -249 138 0
243 -176 267 159 -146 -263 -255 168 -256 144 -17 367 -246 -249 138 -254 0
243 168 -263 267 -255 -146 -144 -242 -150 159 -246 -249 138 0
243 147 267 156 168 159 -263 259 261 111 -150 367 162 -269 -246 -249 138 -254 0
261 162 259 267 -242 156 144 243 -263 269 168 159 -146 -246 -249 138 247 0
-263 147 242 367 168 267 159 269 -246 138 -254 247 0
324 -263 168 144 159 266 -182 -258 -242 -246 -249 138 247 0
261 147 367 156 -267 144 -263 168 159 162 259 -246 138 -254 247 0
-182 -144 243 -263 -255 168 269 -150 252 247 0
243 -156 -263 267 -255 -167 100 216 -226 -150 252 -246 0
39 267 -146 -256 -226 252 144 -263 168 244 -246 -249 0
-242 -263 261 267 -146 168 159 -156 -150 243 162 -246 -249 138 247 0
367 243 242 -269 -252 267 -156 216 159 100 261 -17 -150 -167 162 147 -246 -249 138 -254 0
367 162 168 159 -263 -156 261 -17 -150 267 147 -246 138 -254 247 0
-267 261 -269 147 244 100 252 243 -263 162 144 -249 0
-242 261 -267 168 144 159 -263 -259 162 147 -246 138 -254 247 0
-267 243 -263 159 144 -167 -17 367 261 -269 242 162 147 -246 -249 138 -254 0
-232 -168 -146 267 243 245 -259 -150 -255 209 0
245 -232 -168 -259 209 261 -155 267 -146 -224 -150 -269 162 243 -246 0
245 -232 -168 209 261 -155 267 -146 -224 -150 -269 162 243 -246 -249 0
-168 -259 267 269 -232 -155 245 -150 209 247 0
245 -255 267 269 -168 -146 -150 243 209 247 0
-168 -242 267 -146 159 261 -150 243 162 209 -246 -249 138 247 0
243 -255 367 242 -259 159 -168 111 -150 267 147 -249 138 -254 0
-256 -245 -17 156 -259 147 144 242 367 159 -249 138 -254 0
-168 367 242 267 -269 159 -259 261 111 -150 243 162 147 -249 138 -254 0
243 147 267 242 159 261 -168 111 -150 367 162 -269 -246 -249 138 -254 0
367 162 159 261 -168 111 -150 267 147 -246 138 -254 247 0
-232 261 147 -168 -155 -224 243 -150 -267 162 -269 -249 0
-255 -168 -258 -259 -232 -155 -150 243 247 0
-267 261 -168 -258 -259 324 -182 -155 -232 -224 -150 243 162 147 -246 247 0
-168 -242 -267 159 261 -150 243 162 147 -246 -249 138 247 0
243 147 -267 242 -137 159 261 -168 -17 111 -150 367 162 -269 -246 -249 319 264 205 -254 0
-263 367 159 261 111 -150 162 147 -246 138 -254 247 0
368 -263 243 267 -242 -232 -159 -167 -150 -259 147 -246 -194 0
-368 -232 252 -263 243 -155 -159 -259 -150 -255 0
-232 -242 -167 -255 267 243 -159 -259 -150 -263 147 -246 -194 0
243 -242 -263 -255 267 -159 -259 -150 -167 147 -246 138 0
-242 -256 -232 -259 -167 -245 -159 -263 -150 147 -246 138 0
-256 -224 -263 267 -232 39 -242 -226 -159 -259 -150 147 -246 138 0
-176 -256 -263 -137 267 -242 -232 -159 -259 -150 147 -246 138 0
-242 243 -137 -269 -259 -159 267 261 -150 -263 162 147 -246 138 0
-242 -256 -176 -255 -167 -245 168 144 -263 243 147 -246 138 -254 0
-176 -381 -242 -255 144 243 -252 267 168 -226 -137 115 -194 0
-263 243 -269 267 -159 -242 261 -150 -137 162 147 -246 -249 138 -254 0
243 147 -242 -159 -263 261 367 -150 267 162 -269 -246 -249 138 -254 0
-242 -259 269 -167 -245 -159 -263 -150 147 -246 138 247 0
123 -385 168 267 269 -232 -263 -226 156 -242 147 -246 138 247 0
269 147 -263 -242 -159 267 -150 -259 -246 138 247 0
-242 269 -167 261 -245 -159 -263 259 -150 243 162 147 -246 -249 -194 247 0
243 245 -263 -242 -255 209 -146 -159 267 -150 -137 269 247 0
-224 245 267 269 -256 -146 -159 -150 -249 247 0
-242 243 -137 261 269 -159 267 259 -150 -263 162 147 -246 -249 -194 247 0
367 162 -159 -242 -263 261 -150 267 147 -246 138 -254 247 0
-252 261 -269 162 267 -259 242 -159 367 111 -150 243 -245 147 138 -254 0
243 147 242 -259 -159 -263 261 367 111 -150 267 162 -269 -246 138 -254 0
243 147 242 -259 -159 -263 261 367 111 -150 267 162 -372 -246 138 -254 122 0
261 243 242 267 -269 -263 -159 259 -17 -150 367 162 147 -246 138 -254 0
-242 243 261 -269 -159 -267 -259 -150 -263 162 147 -246 -249 138 -254 0
113 -123 -258 243 -259 247 0
243 -255 269 -263 -252 -159 -242 -150 -259 138 247 0
-252 -242 -267 -137 269 -259 -159 -263 261 -150 243 162 147 -246 138 247 0
252 269 -255 -159 243 -150 -263 247 0
252 243 -259 -267 269 -159 -242 261 -150 -263 162 147 -246 -249 138 247 0
-242 -263 -159 261 -267 -150 162 147 -246 138 -254 247 0
-267 243 242 -269 -17 367 168 144 -254 156 -259 261 162 147 -246 138 0
-267 243 242 -372 -159 -263 -259 261 111 -150 367 162 147 -246 138 -254 122 0
-263 367 261 111 -150 162 147 -246 138 -254 247 0
-158 -221 261 -232 267 -255 -269 263 -259 144 147 -155 -242 -333 -137 159 -226 39 243 162 -249 153 0
261 267 -255 -333 -242 -259 156 -269 243 159 -150 263 162 147 -249 138 153 0
261 267 -259 -242 -269 243 159 -150 263 162 147 -249 138 122 0
368 243 -61 -410 420 -232 269 247 0
420 243 -259 156 -255 269 -242 159 123 -61 -249 138 247 0
-146 -259 159 269 -242 -255 209 -150 267 243 -249 138 247 0
-385 -232 -256 269 -224 -246 247 0
420 -272 -410 261 -231 255 269 144 -242 -158 159 -232 -137 141 -140 162 -246 -249 247 0
-242 245 261 267 -259 255 156 269 159 -272 -150 141 -140 162 209 -246 -249 138 247 0
-410 -221 144 263 -267 159 -242 -158 -137 -232 261 243 162 147 -246 -249 247 0
420 -158 144 261 -242 243 -137 159 259 263 162 -249 247 0
-242 243 261 159 -150 263 162 147 -246 -249 138 247 0
242 261 -255 -333 156 144 159 267 -269 367 263 -259 111 243 162 147 -246 -249 138 -254 153 0
367 243 -255 156 267 -259 242 -269 263 159 261 111 -150 -333 162 147 -246 -249 138 -254 153 0
261 243 267 242 -269 263 159 -259 111 -150 367 162 147 -246 -249 138 -254 122 0
-255 267 -372 -146 367 242 269 243 159 -249 138 -254 0
-158 -244 144 121 -420 -249 0
261 147 156 144 159 367 -272 255 269 242 267 -259 111 141 -140 162 -372 -246 -249 138 -254 0
-272 367 156 269 267 -259 255 242 -372 159 123 261 111 -150 141 -140 162 147 -246 -249 138 -254 0
367 243 -372 242 159 263 -259 261 111 -150 267 162 147 -246 -249 138 -254 122 0
-267 243 242 -137 -372 263 -201 261 -150 367 162 147 -246 -249 264 205 -172 0
-242 -256 -255 -259 -245 -159 -150 243 147 -246 -249 138 0
-224 -226 243 -381 -255 267 -159 -150 -333 0
39 -375 -232 -226 -259 243 -155 -146 -159 368 -269 -150 -272 162 147 0
-242 243 261 -269 -159 -150 263 162 147 -246 -249 138 122 0
-255 -232 269 -155 243 -159 -150 -259 247 0
269 245 243 -146 267 -159 -150 -255 209 247 0
-242 -256 -259 269 -245 -159 -150 147 -246 138 247 0
-242 243 261 -159 -150 263 162 147 -246 -249 138 247 0
248 242 367 243 -159 -259 111 -150 -255 138 -254 0
243 147 242 -159 263 261 111 -150 367 162 -269 -246 138 -254 122 0
261 367 111 -150 162 147 -246 138 -254 247 0
-242 367 267 -255 159 -263 -146 209 156 111 -150 -259 243 -246 -249 138 -254 0
-261 -242 156 -259 168 159 -263 -255 243 -202 -246 -249 138 0
368 -168 -232 -155 -259 -236 -261 -150 243 -202 0
-261 -242 159 -263 -259 -255 -150 243 162 -246 -249 138 0
-168 -150 -146 -155 -226 -232 -259 250 39 -261 267 162 0
-242 367 156 159 -269 -263 -259 -261 255 111 -150 141 162 147 -246 -249 138 -254 0
-226 -382 216 100 -263 -261 250 252 162 -246 0
-236 -261 -242 168 159 -263 -255 243 -202 -246 -249 138 0
368 -261 -226 -168 -202 -236 -333 -150 267 243 0
-236 -146 -255 159 -242 -263 209 259 -261 -150 -269 -202 243 -246 -249 138 0
-226 267 162 168 159 -263 -261 -242 -246 -249 138 0
-242 243 159 -269 -261 367 111 -150 -263 162 147 -246 -249 138 -254 0
167 -242 168 -194 0
368 -261 -202 -159 -259 -236 -242 -150 -263 243 -246 138 0
-221 -368 -333 -159 -150 0
-242 -261 -159 -263 -259 243 -150 -255 162 -246 138 0
368 -242 -137 -236 -159 -263 267 -261 -150 243 -202 147 -246 -194 0
-242 243 -137 -159 -263 -255 -261 -150 267 162 147 -246 -194 0
-242 243 -159 -263 -255 -261 -150 -269 162 147 -246 138 0
250 -242 -259 -159 -263 -245 -261 -150 162 147 -246 138 0
-385 267 250 -252 -137 -159 -242 -261 -150 162 147 138 0
-242 162 -137 -159 -263 -259 -261 -150 267 147 -246 138 0
-242 -261 -256 250 -137 168 144 156 -259 -252 162 -246 138 0
-256 -176 -259 250 -137 -159 -263 -242 -261 -150 162 -246 138 0
-242 367 -159 -269 -263 -259 -261 255 -150 141 162 147 -246 138 -254 0
39 267 -167 -137 250 -256 -252 -226 -159 -146 -242 -261 -150 162 -246 0
39 -263 -256 250 -242 252 -159 -226 -146 267 -261 -150 162 -246 -249 -194 0
-256 -242 250 -159 -263 267 -261 -150 162 147 -246 -249 -194 0
-242 243 -269 -261 367 111 -150 -263 162 147 -246 -249 138 -254 0
-261 -263 156 -259 168 159 269 -242 162 -246 -249 138 247 0
-375 -261 -263 100 216 269 -156 252 -150 -202 -246 247 0
-242 -261 168 159 269 -259 -263 -150 162 -246 -249 138 247 0
-166 -155 -375 -259 -168 269 -232 -261 -202 247 0
-232 -261 269 -155 250 -259 -166 -168 162 247 0
-168 -242 -232 -155 -375 -259 269 -148 -261 -219 -150 -202 -246 138 -254 247 0
-242 -261 159 269 -259 -263 -219 -150 162 -246 138 -254 247 0
-267 255 159 -263 -242 144 168 259 324 -258 -182 141 -246 -249 138 247 0
-375 -261 252 -144 -242 216 100 -263 269 -202 -246 138 -254 247 0
-263 -226 259 168 159 269 -242 -261 243 162 -246 138 -254 247 0
-375 -261 269 -202 -168 -255 -166 -150 243 247 0
-261 -166 -255 -202 269 250 -168 -236 -150 243 247 0
-168 -242 -375 -255 269 -148 -261 -219 -150 243 -202 -246 138 -254 247 0
-168 -242 -236 250 269 -255 -261 -219 -150 243 -202 -246 138 -254 247 0
269 -168 255 -224 259 250 245 -127 -261 -150 141 -202 247 0
-168 -375 -235 -261 -150 0
243 -261 159 -146 269 -242 -219 -150 -263 162 -246 138 -254 247 0
-375 -261 -259 -159 269 -263 -242 250 -150 -202 -246 138 247 0
-242 -261 -159 -263 -259 269 -150 162 -246 138 247 0
-375 -261 168 -372 269 -252 -242 -202 -194 122 0
-375 -261 -159 243 -263 269 -242 -150 -255 -202 -194 247 0
-242 147 -375 -137 250 -252 -159 259 255 -261 -150 141 -202 269 -246 -194 247 0
250 -261 252 -202 -159 -263 269 -150 377 -246 247 0
-242 147 250 -159 269 -263 -375 -261 -150 243 -202 259 -246 -194 247 0
-242 147 -159 269 -263 250 -261 -150 243 162 259 -246 -194 247 0
-263 -242 367 111 -150 162 147 -246 138 -254 247 0
-333 -375 -202 -221 -226 243 -231 -232 -259 -261 267 0
-117 263 -158 144 -221 -375 -333 -269 -232 -137 159 -410 -242 -261 243 162 -246 -249 153 0
-221 263 156 -333 -259 -269 -375 159 -226 -242 -261 -150 243 162 -246 -249 138 153 0
263 -255 -259 -269 -375 159 -242 -226 -261 -150 243 162 -246 -249 138 153 0
375 -255 156 -259 159 -261 162 -242 243 -249 138 0
243 -261 -269 159 263 -146 -259 -242 -150 -255 162 -246 -249 138 153 0
-375 -226 -202 -242 156 -256 144 -261 267 115 159 123 -410 -249 138 0
-226 -261 156 123 -202 267 -259 -256 159 -242 115 -150 -375 -249 138 0
-226 -242 -375 123 -259 -256 159 267 -261 -150 -202 -246 -249 138 0
243 -261 159 263 -146 -259 -242 -150 -269 162 -246 -249 138 122 0
-221 263 -158 -407 259 144 -269 -137 -375 159 -226 -242 -261 243 -246 -249 122 0
263 267 259 -269 -242 -137 -375 159 -158 -226 -261 -150 243 162 -246 -249 122 0
-242 243 159 -269 -261 -150 263 162 147 -246 -249 138 122 0
-375 -261 156 243 -259 159 269 -242 -255 -202 -249 138 247 0
-375 -242 -259 269 159 243 -261 -150 -255 -202 -249 138 247 0
-261 -242 269 159 -259 -255 -150 243 162 -249 138 247 0
-226 65 -202 -372 121 -155 267 -375 269 -261 -259 -232 122 0
65 -375 -202 -155 -242 245 269 -259 -261 -232 -137 159 267 209 -249 247 0
-375 -202 -256 -224 -155 -261 269 65 -259 -232 -246 247 0
-375 -261 269 -156 -372 -150 -202 122 0
-370 -150 -156 -407 0
375 269 123 -372 156 162 -242 159 -259 -249 138 0
-226 263 -261 159 -372 -242 259 -375 269 -255 243 -202 -246 -249 138 -254 122 0
-375 -261 259 269 159 263 -146 -242 243 -150 -255 -202 -246 138 -254 247 0
-375 -235 250 255 263 269 -261 -242 -226 259 -372 162 -246 138 -254 122 0
-375 -261 259 159 263 269 -242 -146 -150 243 162 -246 138 -254 247 0
250 375 269 -255 -242 -236 -137 159 243 -249 247 0
-242 263 159 -261 -150 162 147 -246 138 -254 247 0
-385 -242 -375 -269 -159 263 -255 -261 -150 243 162 147 -246 138 153 0
-242 243 -269 -159 -259 -375 -261 -150 263 162 147 -246 138 122 0
375 -255 162 -259 -159 -242 -150 243 -245 147 138 0
375 245 209 -146 250 -159 -255 -269 -261 -150 263 162 243 -249 153 0
245 -232 267 -155 243 -146 -159 -259 -150 -255 209 0
375 -242 -259 -269 -159 263 -255 -261 367 -150 243 162 147 -246 -249 264 138 -172 153 0
-387 -256 -261 -259 -159 -242 -245 -219 -150 162 147 138 0
-226 39 250 267 -256 375 -259 -159 -146 -242 -261 -150 162 -246 138 0
245 -146 -202 -250 -256 -137 -159 -259 -242 -150 267 138 0
-256 -146 -242 -255 -159 267 -375 -261 -150 243 -202 -246 -194 0
-387 250 243 -256 -159 -261 -150 -255 162 -249 0
-242 243 -159 -269 -261 367 -219 -150 263 162 147 -246 -249 264 138 -172 122 0
-375 -261 269 -159 -372 -150 -202 122 0
-375 -261 243 -159 -368 -150 -255 -202 0
-370 -159 -150 -407 0
-242 243 269 -159 -259 -375 -261 -150 263 -202 147 -246 138 247 0
375 250 269 243 -159 -150 -255 162 247 0
-242 375 243 269 -159 -259 -150 -255 162 138 247 0
114 375 -242 250 269 -159 -259 255 -261 -150 263 162 147 138 247 0
209 245 267 269 -232 -155 -159 -150 -259 247 0
-242 243 -159 -259 269 -261 -150 263 162 147 -246 138 247 0
-375 -261 269 -159 259 -146 -242 243 -150 263 -202 -246 -194 247 0
243 375 -242 269 -159 259 -255 -150 263 162 147 -249 -194 247 0
-146 250 -242 -256 269 -159 267 375 -261 -150 162 -246 -194 247 0
-242 367 111 -150 162 147 -246 138 -254 247 0
-261 -255 -259 -375 159 243 242 -252 111 -150 367 -202 -249 138 -254 0
-202 367 -259 -263 159 242 -261 -375 111 -150 -245 147 -246 -249 138 -254 0
-370 -252 156 -225 -202 -375 159 -137 242 -231 -261 -17 111 -150 367 -249 319 205 -254 0
-176 -231 367 168 -256 -259 156 159 242 -252 111 -150 -249 138 -254 0
-252 367 255 156 -259 -375 -269 159 242 -370 -261 111 -150 141 -202 147 -246 -249 138 -254 0
-375 243 259 -269 -263 159 242 -255 -261 -150 367 162 147 -246 -249 138 -254 0
-245 147 -252 168 159 -249 0
-375 -261 -245 259 -252 255 159 -137 242 -269 367 -17 -150 141 147 -246 -249 264 205 -172 0
-250 243 -259 -263 159 -255 242 -202 111 -150 367 -249 138 -254 0
-259 -250 -370 255 168 -269 -263 159 242 -202 -17 367 141 -150 147 -246 -249 138 -254 0
-250 243 -370 -269 -263 159 242 -202 111 367 -150 -259 147 -246 -249 138 -254 0
-370 -250 243 -255 -269 -263 159 242 -202 -17 -150 367 259 -249 138 -254 0
-370 367 242 267 168 -250 159 -202 -17 -263 -246 -249 138 -254 0
243 147 159 242 -263 -261 111 -150 367 162 -269 -246 -249 138 -254 0
-368 269 -255 -263 159 243 -372 367 -150 -259 -246 138 -254 247 0
-261 -252 168 367 159 -259 269 242 -372 -150 162 -249 138 -254 122 0
-261 -252 367 159 -259 269 242 -372 111 -150 162 -249 138 -254 122 0
367 147 168 259 159 242 -263 -261 -150 162 269 -246 138 -254 247 0
-261 -375 -259 159 -255 -137 242 -368 243 -17 111 -150 367 -202 -249 319 205 -254 0
-250 -255 -368 -259 -202 159 -137 156 367 -17 111 243 242 -249 319 205 -254 0
243 147 -259 263 159 242 -255 -261 111 -150 367 162 -269 -246 -249 138 -254 153 0
-373 -225 -375 156 -202 -259 159 242 -261 -256 -17 -150 367 147 -249 138 -254 0
-375 242 156 267 -259 159 -256 -261 -202 111 -150 367 147 -246 -249 138 -254 0
-256 367 156 -259 159 242 -261 267 111 -150 162 147 -246 -249 138 -254 0
-256 -375 -156 -202 159 242 -261 267 -150 367 147 -246 -249 138 -254 0
243 147 -259 159 242 263 -261 111 -150 367 162 -269 -246 -249 138 -254 122 0
-261 269 -259 159 243 242 -372 367 111 -150 -255 162 -249 138 -254 0
-375 242 156 269 -259 263 159 255 -372 -261 -202 -17 -150 367 114 147 -246 -249 138 -254 122 0
-372 147 156 -259 263 159 255 242 -261 367 111 -150 114 162 269 -246 -249 138 -254 122 0
243 147 159 -259 242 263 -261 111 -150 367 162 -372 -246 -249 138 -254 122 0
-375 243 -255 -269 263 159 242 -261 -202 -150 367 259 147 -246 -249 138 -254 122 0
243 147 259 263 159 242 -255 -261 -150 367 162 -269 -246 -249 138 -254 122 0
243 147 259 159 263 242 -261 367 -150 -255 162 -372 -246 -249 138 -254 122 0
-375 -261 -235 255 259 -202 159 -372 263 242 367 -150 269 147 -246 -249 138 -254 0
242 -261 367 -159 -259 243 -263 -17 -150 -255 162 138 -254 0
-202 367 -167 -263 -259 100 156 242 -250 -17 -245 147 -246 138 -254 0
242 39 267 -146 -250 -370 -263 -202 -159 -259 111 -150 367 -246 138 -254 0
367 -232 -261 144 -259 -17 156 -256 168 242 -263 162 -246 138 -254 0
255 147 -263 -259 -159 242 -261 367 111 -150 141 162 -269 -246 138 -254 0
243 147 -159 -259 242 -261 367 111 -150 -263 162 -372 -246 138 -254 122 0
243 147 -259 -159 -255 242 -261 367 111 -150 263 162 -372 -246 138 -254 153 0
123 248 367 -159 -259 242 111 -150 138 -254 0
-375 -202 -256 -259 -159 242 -261 367 111 -150 267 147 -246 138 -254 0
255 147 263 -259 -159 242 -261 367 111 -150 393 162 -269 -246 -249 138 -254 122 0
243 147 -159 242 -261 -259 111 -150 367 162 -372 -246 -249 138 -254 122 0
-255 -261 259 -159 243 242 147 367 -17 -150 -263 162 -372 138 -254 0
-375 -256 -202 -263 -159 242 -261 267 -150 367 147 -246 138 -254 0
-202 242 -167 266 -250 100 144 -263 -245 147 -246 138 -254 0
255 147 -263 259 -159 242 -261 367 -17 -150 141 162 -269 -246 -249 138 -254 0
243 147 -159 259 242 -261 367 -17 -150 -263 162 -372 -246 -249 138 -254 122 0
243 147 259 -159 -255 242 -261 367 -150 263 162 -372 -246 138 -254 122 0
367 147 -150 162 111 -246 138 -254 247 0
-221 -231 -255 243 377 -263 -245 -259 159 168 156 -192 147 -246 -249 0
-226 118 -367 168 -333 267 -259 243 -221 156 159 -263 -219 -246 -249 264 -136 -254 0
-252 -333 144 243 -167 159 -221 -367 -219 115 -249 264 -331 0
-333 377 144 -221 -367 -167 243 115 100 -263 159 -219 -249 264 -331 0
-252 -167 -367 -255 159 243 -219 269 138 -254 247 0
-255 -367 -263 159 269 168 -219 243 -246 138 -254 247 0
-333 -252 162 -367 243 -259 -221 168 156 159 -219 -235 -261 -249 264 -331 0
-367 147 -259 144 -255 -263 168 156 159 162 -219 -246 138 -254 247 0
266 242 -245 159 -263 144 168 147 -246 -249 138 -254 0
-252 267 144 -176 -381 -259 168 159 -367 -225 147 -219 156 -249 264 -331 0
-367 147 261 144 -259 -269 255 -263 168 156 159 141 -140 162 -219 -246 -249 138 -254 0
267 -263 156 -259 147 269 -219 -367 -252 159 168 138 -254 247 0
-263 147 -219 156 267 -367 168 -259 159 269 -246 138 -254 247 0
-252 -256 -367 269 159 144 -167 -246 138 -254 247 0
-367 147 -259 144 261 -263 168 156 159 162 -219 -246 138 -254 247 0
267 -261 156 -367 147 168 -259 159 -252 162 -249 138 -254 0
252 162 -263 -261 -259 100 159 156 -367 -219 -245 147 -246 -249 138 -254 0
-367 147 -261 -259 267 -263 168 156 159 162 -219 -246 -249 138 -254 0
-252 -261 -367 162 -17 -259 -137 144 168 159 -256 -219 156 -249 319 264 205 -254 0
-261 -367 162 -219 -263 168 -259 156 159 -256 144 -17 -246 -249 138 -254 0
-367 -252 269 -259 168 -219 -261 159 156 -202 138 -254 247 0
-263 -367 -17 168 -259 156 144 159 -219 162 147 -246 138 -254 247 0
-221 -333 144 147 159 -245 -259 -231 156 -381 243 -249 0
-333 -221 144 147 115 -225 -367 -259 156 159 -219 267 243 -249 264 -331 0
-232 -410 -255 -367 -372 243 -219 269 138 -254 0
-245 -255 -259 269 -182 243 -367 159 147 156 -219 138 -254 247 0
-255 -226 -367 121 243 269 -225 -219 -372 264 -331 0
263 -255 261 243 -259 -367 168 144 267 159 156 -219 162 147 138 -254 247 0
-381 -367 144 -255 159 156 -259 269 -372 243 -176 -219 -249 138 -254 0
-245 -381 -372 -259 269 121 159 -367 147 144 -219 156 -249 264 -331 0
267 -381 -372 156 -259 -367 147 -258 144 159 -219 -176 138 -254 247 0
-367 147 168 -259 261 144 156 159 263 162 -219 -246 138 -254 247 0
-221 -245 -235 -261 147 -255 159 156 -259 -219 162 243 -367 -249 264 -136 -331 0
368 243 267 -226 -367 -202 -235 -225 -219 -236 -261 264 205 -331 0
-255 243 162 -261 -259 -367 159 -219 267 147 156 -249 138 -254 0
-381 -176 -367 243 162 -259 159 144 156 368 -219 -261 -235 -249 264 -331 0
-381 -261 -367 -235 162 144 -259 -221 -255 156 159 -219 -176 243 -249 264 -331 0
368 243 -367 -259 269 -261 159 -219 156 162 138 -254 247 0
263 147 -259 168 -367 144 156 159 -219 162 -255 -246 138 -254 247 0
-375 115 -367 144 -202 -259 -261 267 159 -219 156 147 -249 138 -254 0
-245 375 162 159 -381 147 144 -249 0
267 115 144 -259 147 -261 156 159 -219 -367 162 -249 138 -254 0
-375 267 -259 -367 -261 147 156 159 -219 162 269 138 -254 247 0
-245 375 162 269 -259 159 156 121 147 -367 -219 -249 264 -331 247 0
375 250 162 269 -225 -226 -219 -367 247 0
393 255 147 -367 -259 263 144 156 159 267 -219 162 -261 138 -254 247 0
-176 -375 144 269 -256 -367 159 -259 156 -261 -219 162 -246 138 -254 247 0
-201 -373 -259 269 -381 144 162 375 -176 -231 121 -367 -219 250 -249 264 -331 247 0
-259 -367 -17 144 168 156 159 -219 162 147 -246 138 -254 247 0
261 -263 243 -367 -255 144 259 168 156 159 -219 162 -246 138 -254 247 0
-225 -255 147 -367 269 144 243 -372 121 159 -219 -381 -249 264 -331 0
261 162 144 168 159 156 -367 -219 259 147 -246 138 -254 247 0
-375 -235 168 -225 -202 243 -261 159 -263 -255 -219 267 -367 147 -246 -249 264 205 -331 0
242 162 375 -261 159 168 -263 -245 147 -246 -249 138 -254 0
-221 375 243 159 250 -261 -167 100 -263 -367 -219 -333 162 -246 -249 138 -254 0
-226 -239 144 100 -167 -375 -202 -367 159 -381 147 216 -176 -219 -261 267 -249 138 -254 0
-226 267 -256 -176 250 144 375 -263 -261 -146 -167 100 159 39 242 162 -246 -249 138 -254 0
-256 -263 144 159 168 -261 267 -367 -219 162 147 -246 -249 138 -254 0
-375 -202 168 267 -261 -263 -367 -219 269 147 -246 138 -254 247 0
-367 147 -263 168 144 156 159 -219 162 259 -246 138 -254 247 0
-255 -381 -235 147 -202 144 -375 159 -367 -261 -219 267 -225 243 -249 264 205 -331 0
243 375 -255 267 118 -226 250 -261 -219 -367 162 264 138 -331 0
113 -255 144 -367 243 -381 267 -261 -235 -225 159 -219 162 147 -249 264 138 -331 0
-255 -367 -202 269 243 -219 -375 -261 138 -254 247 0
250 375 269 162 243 -255 -219 -367 121 264 -331 247 0
-367 147 144 168 159 156 -255 -219 162 259 -246 138 -254 247 0
269 147 -375 267 -261 144 159 -367 -202 -256 -246 138 -254 247 0
111 -150 162 147 -246 138 -254 247 0
113 -176 243 -381 144 156 159 -111 -385 -249 -254 0
266 168 144 159 -263 156 -259 -111 -246 -249 138 -254 0
-226 -225 144 -385 115 156 159 -111 -249 -254 0
113 -387 162 243 156 159 -111 -385 -249 -254 0
-261 252 100 156 -202 159 -263 -259 -111 -249 -254 0
-267 -261 -259 162 255 168 144 159 156 -111 114 147 -249 -254 247 0
-267 255 162 -385 141 159 156 144 -111 375 -269 147 -249 -254 0
113 -385 261 243 168 156 159 -111 162 147 138 -254 247 0
-259 -263 -382 168 156 159 -111 147 -246 -249 -254 0
-259 261 168 156 159 -111 162 147 -246 138 -254 247 0
-259 147 156 -150 162 159 -246 138 -254 247 0
243 368 162 261 -156 159 -111 -150 -269 -245 147 -249 138 -254 153 0
113 261 -156 243 -111 -150 159 162 147 138 -254 247 0
115 -226 -225 -263 159 144 168 -111 -246 -249 -254 0
-263 147 255 261 168 144 159 162 -111 -246 138 -254 247 0
-225 -226 168 162 159 -263 -111 -261 -246 -249 -254 0
-176 -256 -111 -252 -261 144 159 -167 162 -249 -254 0
-256 -261 -137 -263 144 100 -167 159 -111 162 -249 -254 0
-263 147 255 -261 168 144 159 162 -111 -246 138 -254 247 0
-381 -225 162 144 159 -111 -261 147 -249 -254 0
263 255 162 -261 159 144 -111 393 267 147 138 -254 247 0
261 147 168 159 156 144 -111 162 259 -246 138 -254 247 0
-381 261 259 243 144 -168 159 -111 -150 -255 147 138 -254 247 0
259 -111 168 -261 156 144 159 162 147 -246 138 -254 247 0
-168 -261 -255 159 259 -111 162 147 -246 138 -254 247 0
-261 141 162 255 144 156 159 -111 147 267 259 138 -254 247 0
113 243 168 159 156 259 -111 261 147 138 -254 247 0
261 243 168 156 159 -111 259 162 147 138 -254 247 0
162 147 -255 168 156 159 -111 259 -144 -246 138 -254 247 0
-263 162 -261 168 159 -111 -225 147 -246 -249 138 -254 0
162 147 255 168 156 159 -111 267 259 -246 138 -254 247 0
159 -150 162 147 -246 138 -254 247 0
113 -382 243 -259 -263 168 156 -111 147 -254 0
248 113 243 -111 123 -254 0
113 261 144 -269 -259 162 243 168 156 -111 -382 147 -254 153 0
-381 -252 147 144 -259 -176 -245 156 -111 168 -254 0
-256 -192 -245 168 -259 -263 144 156 -111 147 -246 138 -254 0
393 147 255 -259 261 -225 -269 168 144 156 162 -111 -246 138 -254 122 0
261 243 259 -159 -111 -150 -255 162 147 138 -254 247 0
243 147 113 123 168 -387 144 156 -137 162 -111 -246 -136 -254 247 0
-202 147 144 255 -259 -192 -263 168 156 -245 -111 -246 138 -254 0
-263 147 -225 255 -259 -261 -192 144 168 156 162 -111 -246 138 -254 0
250 375 162 -245 -259 144 156 -111 -381 147 -254 0
-382 -381 -250 -111 144 -259 156 -202 147 -254 0
250 -261 156 -111 -381 144 -259 168 -263 162 -254 0
393 147 -269 -259 255 -261 168 144 156 162 -111 -246 138 -254 122 0
243 -387 259 -159 -111 147 -150 162 -255 138 -254 247 0
-256 162 168 -261 -263 144 -111 -245 147 -246 138 -254 0
259 147 168 -261 144 255 156 -111 141 162 -269 -246 138 -254 153 0
-263 -202 147 269 141 255 259 372 168 156 144 -261 -111 121 264 -254 247 0
-150 162 147 -246 138 -254 247 0
261 -226 242 -232 -224 -255 -259 -269 367 111 156 150 243 147 -246 138 -254 0
-221 -232 -259 -367 267 -333 -155 243 -219 -226 118 138 -254 0
243 261 -224 -255 -259 -269 111 156 150 159 147 -246 -249 138 -254 0
269 -259 367 159 156 150 -246 138 -254 247 0
255 261 -140 -155 242 -224 -259 -226 111 -269 141 -232 162 -249 138 -254 0
-236 399 243 367 -202 -255 150 -261 242 -246 -386 138 -254 0
-385 -255 162 250 243 -261 -219 -232 -367 264 -331 0
399 -232 162 243 -259 250 242 -219 -155 150 -255 -261 -246 -386 138 -254 0
-158 -267 -202 255 -224 -269 -259 147 250 -261 242 -219 -232 141 -155 -367 -249 138 -254 0
-231 -232 168 -221 252 -267 -367 -255 -269 -259 261 -219 243 162 147 -246 264 -331 0
255 -259 393 261 -144 367 -226 159 111 39 -146 150 156 162 -246 138 -254 247 0
255 261 -269 100 -367 216 252 -226 248 -259 156 393 162 -246 138 -254 122 0
-226 156 393 255 -261 -259 -236 159 111 -144 150 367 -202 -246 138 -254 247 0
250 -232 162 -261 -367 -231 -259 100 252 242 -219 -263 -246 138 -254 0
159 147 -259 156 162 111 -246 138 -254 247 0
243 147 367 -255 261 144 159 156 150 -372 162 259 -246 -249 138 -254 0
-226 -236 243 -144 367 -255 -269 259 159 156 150 261 -202 -246 138 -254 247 0
367 147 259 261 -255 156 162 159 -246 138 -254 247 0
-226 118 162 261 -224 243 -146 259 -367 -269 156 -219 -221 -255 -249 264 -331 0
-255 267 -367 243 245 269 -219 -182 138 -254 247 0
245 162 -255 261 -367 144 242 259 -219 156 -201 147 -246 138 -254 247 0
-226 118 -269 168 -167 -367 -333 243 261 259 -221 -219 156 252 -246 264 -254 153 0
259 147 261 -255 159 156 162 -219 -246 138 -254 247 0
-256 -263 -17 269 267 367 159 150 147 -246 138 -254 247 0
-224 -367 -381 -258 324 -182 -226 -225 -219 247 0
243 147 -367 -261 242 250 267 -219 150 -226 162 -255 -246 138 -254 0
243 147 -261 -255 -269 159 156 150 -219 162 259 -246 -249 138 -254 153 0
259 147 -261 -255 159 156 162 -219 -246 138 -254 247 0
-370 -261 -225 -375 367 159 150 -202 -246 -249 138 -254 0
367 147 -261 255 159 156 162 259 -246 138 -254 247 0
255 267 141 -367 144 -269 -226 259 -261 250 -137 -219 156 150 -201 162 -246 -249 264 205 -254 0
141 147 -367 -261 255 -269 159 156 150 -219 162 259 -246 -249 138 -254 153 0
245 147 250 -261 -367 267 -219 269 162 -246 138 -254 247 0
250 -267 141 -367 259 269 255 144 -201 -261 156 150 242 162 -246 138 -254 247 0
159 147 156 162 111 -246 138 -254 247 0
-226 -221 252 267 168 -373 -263 -259 -333 156 243 -246 0
115 -242 243 267 -259 -255 245 -219 156 144 150 -146 209 -246 -249 138 -254 0
-226 -373 -269 243 168 -221 144 -266 267 -333 261 -259 156 150 -242 162 -246 138 -254 153 0
-242 243 267 -269 -255 -259 261 144 -219 -159 150 156 162 147 -246 -249 138 -254 153 0
-368 367 -14 -245 -259 -255 243 156 150 242 147 -246 205 -254 0
367 147 243 242 267 -259 150 156 -255 -246 138 -254 0
-221 -368 -373 -259 -333 -242 -219 -155 150 -246 138 -254 0
261 243 -255 -259 367 -269 -159 -219 267 150 156 162 147 -246 -249 138 -254 153 0
-381 -242 -259 266 -255 144 -219 156 150 243 -246 138 -254 0
-242 243 -269 -255 -259 261 -267 -219 -159 150 156 162 147 -246 -249 138 -254 0
242 243 -267 -269 -17 -255 367 -259 144 261 -159 150 156 162 147 -246 138 -254 0
261 243 -255 367 -269 -259 -159 -219 156 150 -17 162 147 -246 -249 138 -254 153 0
367 147 -255 -259 267 -219 156 162 269 -246 138 -254 247 0
-232 243 -255 269 -385 150 -242 -246 138 -254 247 0
-242 243 -259 -255 -219 156 150 269 -246 138 -254 247 0
39 -224 -226 267 -385 -232 -256 -146 150 -246 0
-226 39 267 -259 -232 -242 -224 -256 -219 -155 -146 150 -246 -249 138 -254 0
-176 -242 267 -256 272 -259 -159 -219 156 150 147 -246 -249 138 -254 0
242 -176 -259 156 -256 272 267 144 -192 367 -17 -159 150 147 -246 -249 138 -254 0
261 393 255 367 -269 -259 -159 -219 156 150 -17 162 147 -246 -249 138 -254 122 0
-385 267 420 -226 -232 -242 269 150 -246 138 -254 247 0
-232 245 -259 209 267 269 -219 -155 150 -242 -246 138 -254 247 0
-242 -155 -232 269 255 -259 261 -219 144 162 147 -246 138 -254 247 0
-242 147 255 -259 261 111 156 162 269 -246 138 -254 247 0
367 -232 -159 -155 -140 -17 242 255 269 -259 150 261 141 162 -246 138 -254 247 0
39 -248 -370 267 269 -372 156 -146 150 -246 0
267 243 -242 -226 -381 -255 150 -224 -246 138 -254 0
-176 -256 -242 -269 -255 259 243 261 -159 150 156 147 -246 -249 138 -254 153 0
259 147 261 -255 367 -269 -159 156 162 144 -246 138 -254 247 0
245 370 -255 269 -182 -242 150 243 -246 138 -254 247 0
-226 267 -255 259 261 269 144 243 -242 168 150 156 162 -246 138 -254 247 0
-370 267 420 -372 -242 269 150 -246 138 -254 0
245 267 269 -182 -255 243 -219 -146 150 -242 209 -246 138 -254 247 0
-242 144 -267 269 -255 259 261 156 162 147 -246 138 -254 247 0
368 -61 -263 252 100 269 243 -182 -246 247 0
-242 147 -255 259 261 111 156 162 269 -246 138 -254 247 0
-226 267 -372 -256 -242 269 420 -224 150 -246 138 -254 0
245 267 -182 -146 -224 269 -242 -219 -256 150 -246 138 -254 247 0
-182 -242 267 -256 269 -263 -159 -219 150 147 -246 138 -254 247 0
-244 240 -176 377 -245 -159 150 147 -246 0
-381 243 -176 -245 144 -367 150 -255 147 -246 138 -254 0
208 243 -255 -259 -269 -367 261 -219 168 150 156 162 147 -246 -249 138 -254 153 0
243 147 208 121 -255 168 -267 -367 261 -219 150 269 162 -372 -246 264 -331 247 0
208 156 -255 -259 -367 261 -219 168 162 147 -246 138 -254 247 0
261 243 259 -333 -269 144 -137 -367 -221 -219 168 150 156 162 147 -246 -249 264 -136 -254 153 0
162 147 -255 -367 -219 -245 269 -246 138 -254 247 0
208 156 -255 -367 261 -219 216 162 147 -246 138 -254 247 0
156 393 255 -259 -269 144 216 -367 261 100 150 -167 162 147 -246 138 -254 122 0
-372 147 -245 269 -367 -219 150 121 -246 264 -331 0
121 147 269 -259 -367 -245 156 150 -219 -246 264 -331 247 0
255 -372 141 -140 -367 267 168 245 144 -219 150 269 261 162 -246 138 -254 247 0
144 156 -259 255 267 269 -367 261 -219 168 162 147 -246 138 -254 247 0
144 156 255 -259 -367 261 -219 216 162 147 -246 138 -254 247 0
261 147 156 162 111 -246 138 -254 247 0
367 147 243 -245 156 150 -259 -255 -246 138 -254 0
243 162 367 -255 -259 -219 -261 150 156 267 147 -246 138 -254 0
-226 -242 -269 144 -267 -259 -255 -261 -159 -219 156 150 243 162 147 -246 138 -254 153 0
-252 -261 243 -255 242 367 -259 168 150 156 162 -246 138 -254 0
252 -255 -17 242 -263 367 243 138 -254 0
-267 256 168 144 -269 263 153 0
-267 -261 144 -269 242 -17 243 -255 -259 367 168 150 156 162 -246 -249 138 -254 153 0
156 243 144 367 -255 -269 -259 111 -261 150 -159 162 147 -246 -249 138 -254 153 0
243 156 -259 -255 -144 -159 -219 -242 150 -261 162 -246 -249 138 -254 0
-256 242 -202 -17 -113 -255 -261 367 -137 111 -259 150 156 -246 -249 319 205 -254 0
-144 243 367 -255 -259 -261 111 -159 150 156 162 -246 -249 138 -254 0
-236 -255 -269 243 256 144 168 259 -242 -261 156 150 250 -202 -246 138 -254 122 0
-226 243 368 267 -236 -168 -242 -159 150 -261 -202 -246 138 -254 0
245 -242 267 250 144 -269 259 -255 -261 -159 156 -146 150 243 162 209 -246 138 -254 122 0
-242 243 -269 259 -255 -261 -159 -219 156 150 144 162 147 -246 138 -254 122 0
156 243 267 242 259 367 -255 -269 -261 -159 150 144 162 147 -246 138 -254 122 0
156 243 144 367 -255 -269 259 -219 -261 150 -159 162 147 -246 138 -254 122 0
243 147 -269 259 -255 -144 -159 -219 -242 150 -261 162 156 -246 -249 138 -254 153 0
-221 -368 -144 -333 -159 0
243 147 367 -255 -269 259 -261 -219 -159 150 156 162 -17 -246 -249 138 -254 122 0
243 -261 -256 269 -242 -255 250 -148 -219 -224 162 -246 138 -254 247 0
-267 243 168 -266 -242 -236 259 250 -261 156 150 -255 -202 -246 138 -254 0
-242 -236 243 269 368 -148 -219 -261 -202 -246 138 -254 247 0
243 -261 242 269 162 150 -255 367 -246 138 -254 247 0
243 162 -367 -255 -259 -219 -261 150 156 267 147 -246 138 -254 0
368 -235 -263 -236 -167 100 377 -367 -261 -219 150 243 -202 -246 264 -136 -331 0
-236 -261 -263 -255 100 -167 243 250 -367 -219 150 -17 -202 -246 138 -254 0
-235 -381 243 250 -259 -176 368 -367 -255 -261 -219 156 150 144 162 -246 264 -331 0
-267 243 144 -259 -269 250 -367 -255 -261 -17 -219 168 150 156 162 -246 -249 138 -254 153 0
-267 -367 -269 252 243 368 144 168 -224 -219 150 -137 -246 -254 153 0
-267 243 208 -259 -269 -367 -255 -261 -17 -219 168 150 156 162 -246 -249 138 -254 153 0
243 162 -367 250 -261 -219 150 -255 267 147 -246 138 -254 0
267 -367 243 -226 259 -224 -269 252 144 168 368 156 150 -137 -246 -254 122 0
208 243 259 267 -269 -367 -255 -261 -219 168 150 156 162 147 -246 138 -254 122 0
243 147 -367 -255 -269 259 -261 -219 -159 150 156 162 -17 -246 138 -254 122 0
-255 147 156 162 111 -246 138 -254 247 0
-242 393 168 250 -269 267 -259 255 -261 -219 156 150 144 162 147 -246 -249 138 -254 122 0
367 393 250 -269 267 144 -259 255 -261 -17 -219 168 150 156 162 147 -246 -249 138 -254 122 0
-232 -226 -166 -225 123 -168 -155 0
-232 -226 123 -225 -168 -242 -159 -155 150 -246 138 -254 0
-261 156 250 267 -259 -168 -159 -219 -242 150 162 147 -246 138 -254 0
385 123 -155 -159 -168 0
-168 156 267 -259 250 -261 367 111 -159 150 162 147 -246 138 -254 0
-407 123 -232 -226 -159 -259 -144 -155 0
-261 156 250 267 -259 -144 -159 -219 -242 150 162 147 -246 138 -254 0
385 123 -144 -259 -159 -155 0
393 147 -259 267 255 -261 367 111 -159 150 156 162 -269 -246 -249 138 -254 122 0
-242 147 267 -259 -219 156 150 269 -246 138 -254 247 0
-176 -232 -263 -155 -256 -261 -242 144 -259 250 367 -159 150 162 -246 138 -254 0
-176 156 -263 -256 -259 -261 -242 -159 -219 367 150 162 -246 138 -254 0
-244 156 144 123 242 -252 -256 -259 -176 -159 367 150 -246 138 -254 0
-176 156 -263 -256 -261 -259 -236 242 -159 111 367 150 -202 -246 138 -254 0
393 147 -259 -267 255 -261 367 111 -159 150 156 162 -269 -246 -249 138 -254 122 0
-261 162 -259 269 -219 156 150 -242 -246 138 -254 247 0
-375 -261 -202 367 242 -372 -259 156 150 269 -246 138 -254 122 0
-261 39 144 259 250 -269 267 -242 -226 255 -159 156 -146 150 141 162 -246 138 -254 153 0
-242 147 267 -269 255 -261 -159 -219 156 150 141 162 259 -246 138 -254 153 0
242 147 367 168 -269 267 255 -261 150 162 259 -246 138 -254 153 0
-370 -375 -202 -261 267 -159 -168 0
156 147 259 267 255 -261 367 -17 -219 -159 150 141 162 -269 -246 -249 138 -254 153 0
-375 -261 -242 -225 367 269 -219 162 147 -246 138 -254 247 0
-242 147 267 367 -261 -219 162 269 -246 138 -254 247 0
-375 -261 367 -159 242 -235 -372 259 269 255 267 150 162 147 -246 138 -254 0
372 377 168 -242 150 -246 138 -254 247 0
255 156 259 269 -242 -267 -375 -159 -219 -261 150 141 -202 -246 138 -254 247 0
375 -242 250 -372 168 -258 -263 150 -246 138 -254 0
-267 255 259 269 -242 -261 -159 -219 156 150 141 162 -246 138 -254 247 0
208 393 267 -269 -259 -375 -367 255 -261 -219 168 150 156 162 147 -246 138 -254 122 0
144 393 250 -269 267 -259 100 252 -367 255 -261 156 150 375 162 147 -246 -249 138 -254 122 0
208 393 -269 -259 267 -367 255 -261 -219 216 150 156 162 147 -246 -249 138 -254 122 0
144 393 -269 -259 -267 -367 255 -261 -219 168 150 156 162 147 -246 -249 138 -254 122 0
255 114 250 269 168 208 -267 -367 375 -219 150 121 162 147 -246 264 -331 247 0
65 -250 400 -155 -183 121 269 -232 -263 168 252 242 123 150 -246 138 -254 247 0
144 -202 -269 259 267 -367 255 -261 -219 216 150 156 141 147 -246 138 -254 153 0
162 147 -367 -375 -261 -219 267 269 -246 138 -254 247 0
-375 -367 377 269 -202 216 -219 150 -261 -246 138 -254 247 0
113 243 -259 -111 156 150 -269 162 147 -246 -249 -136 -254 0
243 147 261 -111 156 150 -269 162 -255 -246 -249 138 -254 153 0
-259 -263 -382 156 -111 168 150 147 -246 -254 0
115 -261 -259 144 -111 156 150 162 -246 -249 -254 0
375 162 159 -259 -111 150 156 -246 -249 -254 0
-267 393 -261 -259 255 -111 156 150 -269 162 147 -246 -249 -254 122 0
261 255 259 -111 156 150 141 -140 162 147 -246 -249 -254 247 0
141 162 -269 -261 144 255 -137 -111 156 150 259 -225 147 -246 -254 0
162 147 -261 159 150 -225 -111 -246 -249 -254 0
162 147 -269 -261 -159 255 -137 -111 156 150 141 -225 259 -246 264 -254 153 0
156 162 147 -246 138 -254 247 0
-255 367 -167 -263 243 -17 150 159 -246 -249 138 -254 0
-225 147 -255 168 -263 -159 267 -156 150 -242 243 -246 138 -254 0
-225 -255 168 -159 -17 -156 367 -263 267 150 243 147 -246 138 -254 0
243 147 -17 -263 367 168 -156 150 267 -255 -246 -249 138 -254 0
-255 243 367 267 -156 150 -168 147 -246 -249 138 -254 0
-381 367 159 -17 144 150 -246 -249 264 -194 205 -172 0
-381 267 -242 144 -226 -255 150 243 -246 138 -254 0
261 147 267 -255 367 -17 -156 150 243 162 -269 -246 -249 138 -254 153 0
-226 243 -263 252 -167 168 -219 -221 267 -333 118 -367 -246 264 -254 0
162 147 -255 261 111 -269 150 243 267 -156 -246 -249 138 -254 153 0
-242 147 267 -255 -219 162 269 -246 138 -254 247 0
-146 267 269 -156 242 367 243 150 -255 -246 138 -254 247 0
261 147 -267 -255 367 -17 -156 150 243 162 -269 -246 -249 138 -254 0
-255 269 243 367 150 159 -246 138 -254 247 0
123 243 -263 100 216 252 -255 269 -242 -246 138 -254 247 0
-242 261 168 269 -267 -255 144 162 147 -246 138 -254 247 0
367 -267 -255 261 -17 162 147 -246 138 -254 247 0
-267 261 -269 144 244 252 243 147 162 168 -249 0
-256 147 159 367 -263 -192 -17 267 150 -156 -246 -249 138 -254 0
-256 -242 168 144 -263 267 150 147 -246 -249 138 -254 0
261 147 267 255 367 -17 -156 150 393 162 -269 -246 -249 138 -254 122 0
269 147 267 367 150 159 -246 138 -254 247 0
-242 261 269 267 255 -159 -219 162 147 -246 138 -254 247 0
261 255 252 144 -269 244 100 393 242 162 -246 138 -254 122 0
-242 -258 324 168 144 -182 -263 266 150 -246 138 -254 247 0
367 -267 255 261 -17 162 147 -246 138 -254 247 0
261 147 162 111 -246 138 -254 247 0
-382 -226 250 -159 -261 -255 -156 243 162 0
-255 147 267 -159 -261 -219 -156 150 -242 243 162 -246 138 -254 0
243 147 -261 -219 -255 150 267 162 -156 -246 -249 138 -254 0
-261 243 367 159 150 -255 162 -246 -249 138 -254 0
-224 250 243 -159 162 -255 -156 -256 -261 -249 0
-255 162 -267 -159 -261 -219 -156 150 -242 243 -246 138 -254 247 0
-368 243 -255 -159 242 -261 -156 150 -252 162 -246 138 -254 0
-267 162 367 -255 -17 -219 -261 150 -156 243 -246 138 -254 247 0
-267 263 -269 -255 243 168 -224 144 -367 -137 250 -261 -219 150 252 162 -246 -249 264 -254 153 0
367 162 159 -261 150 267 147 -246 -249 138 -254 0
250 162 -226 -263 -159 267 -261 -156 150 -242 -246 138 -254 0
-256 367 242 267 -261 -17 -156 150 162 147 -246 -249 138 -254 0
255 -261 -375 -372 -267 159 -168 367 -17 -156 150 141 -202 147 -246 -249 264 -194 205 -172 122 0
-375 -261 -263 269 252 168 -148 -219 -242 -202 -246 138 -254 247 0
367 141 242 144 168 -267 -263 255 -261 150 -269 162 147 -246 138 -254 0
367 141 242 144 168 -267 -263 255 -261 150 -372 162 147 -246 138 -254 122 0
252 -263 100 243 -111 368 -254 0
115 393 255 159 267 -111 -156 150 261 162 147 -246 -249 -254 247 0
-176 266 144 168 -382 -263 252 -367 150 147 -246 138 -254 0
368 243 159 -267 -269 -111 -156 150 261 162 147 -246 -249 -254 0
-244 -252 159 -156 150 -246 -249 0
-261 113 168 243 -111 150 -263 162 -246 -254 0
-256 -261 144 168 -263 -111 150 162 -246 138 -254 0
113 243 144 168 -261 -137 -111 150 263 162 147 -246 -136 -254 247 0
393 162 263 144 -261 -137 -111 150 255 267 147 -246 264 -254 247 0
162 147 -246 138 -254 247 0
-252 -150 367 -255 267 -162 147 -249 138 -254 0
-242 -255 267 252 -263 -146 -150 -162 -246 -249 138 0
367 -150 -263 -17 -255 267 -162 147 -246 -249 138 -254 0
-367 -162 -150 -219 264 -331 0
-252 -267 -255 367 -150 147 -246 138 -254 247 0
-267 259 -269 243 -140 -263 244 147 -255 156 144 100 252 -249 0
-267 -263 -242 252 -255 -150 -162 147 -249 138 247 0
-242 -150 252 255 -263 -146 267 -162 -246 -249 138 247 0
255 -267 -269 -369 147 141 -123 0
-252 -267 255 111 -150 -162 147 138 -254 247 0
255 -267 367 144 -269 159 -263 156 141 168 147 -246 -249 138 -254 0
-263 147 -150 111 -246 138 -254 247 0
245 -232 243 267 209 -255 -140 -155 -146 -150 -259 -162 0
267 263 -162 -242 -255 -146 -150 -269 209 -249 138 122 0
-243 367 -259 242 267 -150 -162 147 -249 138 -254 0
267 -255 -162 242 367 -150 -259 147 -249 138 -254 0
-243 -256 -195 242 267 252 -17 367 159 144 147 -246 -249 138 -254 0
367 -162 -255 267 263 -17 -150 -269 147 -246 -249 138 -254 122 0
267 -146 -258 -182 -242 -255 -150 -162 209 -249 138 247 0
-162 -255 -256 -242 -150 -259 -249 138 0
-256 367 242 -243 -259 144 -17 159 156 -195 -249 138 -254 0
367 -162 -255 -267 263 -17 -150 -269 147 -246 -249 138 -254 153 0
243 -255 -259 -258 -162 -140 -155 -150 -232 247 0
-267 263 -242 -255 -162 -150 269 -249 138 247 0
243 -255 -258 367 242 -121 -137 264 205 -172 0
267 -146 -259 -242 -162 -150 -256 -249 138 0
367 -150 255 263 -269 -17 267 -162 147 -249 138 -254 122 0
-162 209 267 255 263 -146 -150 269 -242 -246 -249 138 247 0
-162 -242 269 -256 -150 -259 -246 -249 138 247 0
-243 -382 -263 -111 147 -195 -167 159 -249 -254 0
-167 -382 -195 -111 147 113 159 100 216 -263 -249 -254 0
-385 -382 147 -195 159 156 -243 -249 0
113 -382 -195 -259 -111 156 159 147 -249 -254 0
115 -225 -195 -111 -243 159 144 147 -249 -254 0
-256 -225 -195 -111 113 159 144 147 -249 -254 0
-255 -150 -111 267 -162 147 138 -254 247 0
-243 -167 100 156 -259 -111 159 -263 -195 -249 -254 0
113 156 -259 -111 168 159 -263 -195 -249 -254 0
-243 266 -263 242 -167 -195 159 144 100 -246 -249 138 -254 0
113 -267 144 -195 259 -111 -167 -263 159 -269 156 100 147 -246 -249 138 -254 0
263 -267 147 144 -111 113 159 156 -195 168 -269 -249 -254 153 0
255 147 141 156 -111 159 -263 144 168 -269 -246 -249 138 -254 0
255 263 147 -111 159 144 156 141 168 -269 -249 -254 122 0
255 -150 263 -111 -245 -162 147 -249 -254 247 0
-150 147 -246 138 -254 247 0
-226 248 -263 156 267 252 242 -259 168 -246 138 -254 0
-226 252 367 -263 242 267 100 -246 138 -254 0
-226 118 -219 -255 267 159 -263 150 -162 -246 -249 138 -254 0
-162 -259 -263 156 111 159 150 -255 -246 -249 138 -254 0
266 252 242 100 -201 144 150 -263 -246 -249 138 -254 0
-162 -263 111 -255 159 150 -144 -246 -249 138 -254 0
39 -162 156 248 255 -219 267 -226 252 242 -201 -263 -269 150 -146 -246 -249 138 -254 0
-162 147 111 159 150 -263 -269 -246 -249 138 -254 0
377 -240 159 113 -111 -195 150 -246 -249 -254 0
-141 -162 -111 159 -263 150 -269 147 -246 -249 138 -254 0
-263 147 159 -246 138 -254 247 0
-252 -162 267 -255 367 -195 156 -259 150 -263 147 -246 138 -254 0
-242 -263 252 267 -255 -219 -195 156 -259 150 100 147 -246 138 -254 0
367 -162 -255 267 -219 -259 156 -195 150 -263 147 -246 138 -254 0
-252 -162 -255 267 367 150 -159 147 -246 138 -254 0
-242 -263 267 252 -219 -255 -195 -167 150 100 216 147 -246 138 -254 0
-263 -162 111 -255 267 150 -159 147 -246 138 -254 0
-252 -162 -267 -255 111 -159 150 -269 -246 138 -254 0
-242 -263 252 -267 -255 -219 -159 -269 150 -162 147 -246 -249 138 -254 0
-263 -162 111 -255 -159 150 -269 147 -246 -249 138 -254 0
-252 -337 -258 -255 367 -159 147 -246 138 -254 247 0
-252 147 255 267 111 -159 -246 138 -254 247 0
-373 -162 39 -226 -242 252 267 -159 -259 -263 150 -146 -246 138 -254 0
255 -267 -232 147 242 -115 -252 -155 141 -159 168 -269 138 -254 0
-162 147 -269 124 252 -267 255 -155 -159 -263 -232 -224 -246 0
168 147 -111 -225 -195 150 -263 -255 -246 264 -254 0
-267 -263 113 -111 -195 -252 -159 156 150 168 -246 205 -254 247 0
-252 168 267 259 -137 -111 141 156 144 150 255 147 -246 264 -254 247 0
255 -263 -269 -252 -111 -267 156 144 -159 141 150 168 147 -246 138 -254 0
-263 147 -246 138 -254 247 0
-141 267 -162 39 -146 -155 -226 242 111 -232 -259 138 -254 0
-162 147 156 159 267 111 150 -259 -255 -246 -249 138 -254 0
-141 263 156 -269 267 39 -226 159 111 259 -146 150 -162 -246 -249 138 -254 122 0
-226 367 -201 242 267 -140 243 -255 150 -246 -249 138 -254 0
-162 147 156 159 267 111 -269 150 263 -255 -246 -249 138 -254 122 0
-162 -255 -226 159 267 -219 150 -156 -246 -249 138 -254 0
-369 -267 -269 144 147 156 -123 168 263 153 0
-141 156 -267 159 111 147 -246 138 -254 247 0
-415 -201 -219 150 -246 -249 0
-242 -255 267 -159 -259 -219 150 -162 147 -246 138 -254 0
-162 147 -159 267 111 150 -259 -255 -246 138 -254 0
-162 147 267 -159 367 150 -255 -256 -246 -249 138 -254 0
-242 147 267 -195 269 -219 -255 -246 138 -254 247 0
-242 -256 -259 -195 156 144 -255 -219 150 -246 138 -254 0
-162 147 -159 -267 -219 -269 150 263 -255 -246 138 -254 153 0
-242 269 -255 -195 156 -259 -219 150 -246 138 -254 247 0
-259 147 -159 269 -219 -255 -246 138 -254 247 0
-242 -256 269 -159 -255 -219 147 -246 138 -254 247 0
-226 -381 367 156 267 -17 -259 159 39 -146 150 -162 -246 -249 138 -254 0
39 -226 -259 156 267 -256 159 111 -146 150 -162 -246 -249 138 -254 0
39 255 267 -269 159 -226 111 263 -146 150 -162 -246 -249 138 -254 122 0
269 147 -367 242 -201 -219 -256 -246 138 -254 247 0
-242 -256 -259 267 156 144 -219 150 147 -246 -249 138 -254 0
-259 367 -256 242 -245 156 144 150 147 -246 -249 138 -254 0
255 -162 -159 267 111 -269 150 263 147 -246 -249 138 -254 122 0
-226 -259 156 -111 -382 159 150 -246 -249 -254 0
-226 263 156 144 259 -225 -201 -111 -269 150 168 -246 -249 -254 122 0
-226 -162 -225 159 -137 -111 -269 150 263 -246 -249 -254 122 0
267 245 159 -137 -111 263 150 -162 -246 -249 -254 247 0
263 -232 -269 168 144 -201 -111 -385 150 -267 -246 -249 -254 153 0
-267 -162 156 -259 159 -111 -269 150 263 -246 -249 -254 122 0
-267 -162 -156 159 -111 -269 150 263 -246 -249 -254 122 0
-267 -162 159 -111 -269 150 263 147 -246 -249 -254 122 0
372 -111 156 -259 159 -182 150 -246 -249 -254 247 0
-259 263 -225 156 144 141 -111 150 147 -246 -254 247 0
-385 -162 -381 113 -333 -159 150 -224 -246 0
-267 -162 -269 -159 -111 -385 150 263 -246 -254 122 0
263 147 -382 -159 -111 -269 150 259 -162 -246 138 -254 122 0
147 -246 138 -254 247 0
-243 367 -259 156 159 -263 -17 100 -195 -167 -246 -249 138 -254 0
-242 -255 243 -263 -259 159 -150 -147 -246 -249 138 0
-255 -263 -259 159 111 -150 -147 -246 -249 138 -254 0
-242 -261 -263 -259 159 -150 -147 -246 -249 138 0
-261 -263 -232 -259 159 111 -150 -147 -246 -249 138 -254 0
-263 -269 -259 159 111 -150 -147 -246 -249 138 -254 0
-242 -255 263 -269 -259 159 -150 -147 -249 138 153 0
-243 -259 263 -269 242 159 111 -150 -147 -249 138 -254 153 0
-255 -269 -259 159 111 -150 -147 -246 -249 138 -254 153 0
-256 -242 -261 -269 -259 159 -150 -147 -246 -249 138 0
-261 -256 -232 242 -259 159 111 -150 -147 -249 138 -254 0
-269 -259 159 111 -150 -147 -246 -249 138 -254 122 0
-242 269 -263 -259 159 -150 -147 -246 -249 138 247 0
243 269 -232 -255 -259 -155 -150 -147 247 0
-232 -242 -385 255 250 -224 -272 269 -140 162 168 144 141 -150 -245 -246 -194 247 0
-242 269 -272 -259 159 -150 -147 -246 -249 138 247 0
-242 168 -269 -263 259 -140 159 -255 162 144 156 -246 -249 138 0
-242 141 -263 259 159 -269 162 144 156 168 -246 -249 138 0
-243 -261 367 242 -167 159 -263 162 141 -246 -249 138 -254 0
-255 -263 -261 242 159 111 -150 -147 -246 -249 138 -254 0
-269 -263 259 159 111 -150 -147 -246 -249 138 -254 0
-255 243 252 269 -263 -140 -150 -147 247 0
250 -261 -372 252 269 -263 -150 -147 -246 122 0
-242 269 -263 259 159 -150 -147 -246 -249 138 247 0
-256 -242 -261 -255 159 -150 -147 -249 138 -254 0
367 -256 242 141 -269 263 259 -261 159 -137 -17 162 144 -243 -246 -249 319 264 205 -254 122 0
-269 263 259 159 111 -150 -147 -246 -249 138 -254 122 0
-375 -242 -255 -236 243 -261 269 -140 -219 -150 -246 138 -254 247 0
141 168 -372 242 367 263 259 159 -258 -243 162 -121 156 144 -246 -249 138 -254 122 0
-159 -150 -147 0
-195 168 -111 159 -259 144 -202 -263 156 -246 -249 138 -254 0
375 113 141 -111 159 -259 156 162 -249 -254 0
-256 113 -195 -111 159 -385 144 156 -249 -254 0
113 263 141 -111 159 -259 168 144 156 162 -249 -254 247 0
255 -385 263 141 -111 159 -269 144 156 162 -249 -254 122 0
-263 -261 141 -111 -167 159 -202 -243 -249 -254 0
-261 -167 141 105 -111 113 159 162 -263 -249 -254 0
113 261 -269 -195 -263 -111 -167 159 259 100 162 144 156 -246 -249 138 -254 0
144 255 156 141 259 -111 -137 159 -167 -269 162 -263 100 -249 -254 0
-256 -261 144 -111 159 162 -243 141 -249 -254 0
263 141 168 -111 159 259 -269 162 144 156 -249 -254 122 0
-243 263 141 -111 159 259 168 162 156 144 -249 -254 247 0
-150 -246 138 -254 247 0
-259 159 156 -263 168 111 150 -246 -249 138 -254 0
-147 385 -255 -368 -140 -168 -155 64 -259 243 0
-147 385 -168 -155 -259 123 0
-141 -147 -269 156 263 -259 162 111 150 159 -246 -249 138 -254 153 0
261 415 144 243 -140 162 -269 156 263 -259 -255 159 150 -246 -249 138 -254 153 0
-147 -255 -140 162 243 156 263 -269 -219 159 150 -259 -246 -249 138 -254 153 0
-381 -176 144 -261 162 156 -259 111 159 150 -246 -249 -194 205 -254 0
-147 -269 156 263 111 159 150 -259 -246 -249 138 -254 122 0
367 -255 -269 144 243 -140 162 263 159 150 -246 -249 138 -254 153 0
367 -147 -269 141 144 162 263 159 150 -369 -246 -249 138 -254 122 0
-141 -147 -269 -263 259 162 -219 150 159 -246 -249 138 -254 0
-255 -147 243 -261 -263 162 111 150 159 -246 -249 138 -254 0
256 -258 -121 -372 367 162 255 259 159 150 -246 -249 138 -254 122 0
-147 -269 263 367 -17 159 150 259 -246 -249 138 -254 122 0
-269 -147 263 259 -219 -17 150 159 -246 -249 138 -254 122 0
263 -147 162 -372 367 -258 -141 259 -17 159 150 -375 -246 -249 264 -194 205 -172 122 0
-263 -147 -254 -111 159 150 -259 -246 -249 138 0
-224 113 -236 -140 243 162 -269 259 -111 -254 0
-263 -147 -111 159 150 -269 -246 -249 138 -254 0
261 -385 162 144 -269 -232 263 -111 -201 150 -246 -249 -254 153 0
113 -224 243 -140 144 263 -269 162 -236 -111 -254 153 0
-147 -269 162 263 -111 159 150 -259 -246 -249 -254 122 0
263 -147 -111 159 150 -259 -246 -249 -254 247 0
-147 -269 162 263 -111 159 150 259 -246 -249 -254 122 0
261 269 144 162 259 263 -111 -201 150 -246 -249 -254 247 0
263 -147 162 159 150 -111 -246 -249 -254 247 0
243 -224 -147 -269 -140 259 -162 -111 263 -254 122 0
159 -246 138 -254 247 0
-141 -147 -159 0
-243 -195 -259 -219 -263 156 168 -159 150 -246 138 -254 0
-242 -221 -255 243 -259 -263 -219 -140 156 168 150 -246 138 -254 0
-221 -368 -333 -159 -147 0
-367 -147 -219 -159 264 -331 0
-221 -147 -259 -255 -219 -159 150 -263 -246 138 -254 0
-242 -385 -255 243 -263 -219 -140 156 168 150 -246 138 -254 0
-263 -147 -255 111 -159 150 -259 -246 138 -254 0
-242 141 255 -259 -269 -219 -263 156 162 144 168 150 -246 -249 138 -254 0
-263 -147 -261 -259 242 111 -159 150 -236 -246 138 -254 0
-250 367 -259 242 -263 -17 -202 156 168 150 -246 138 -254 0
-263 -147 -269 111 -159 150 -259 -246 -249 138 -254 0
-242 -263 -259 269 -219 -246 138 -254 247 0
-242 -195 -255 259 -269 -219 -263 156 162 144 168 150 -246 -249 138 -254 0
-243 367 -269 259 242 -263 -17 -219 141 156 162 144 168 150 -246 138 -254 0
-255 -147 259 -269 111 -159 150 -263 -246 -249 138 -254 0
-242 -263 -255 269 -219 -246 138 -254 247 0
-176 -242 -256 -261 -263 -219 -202 144 168 150 -246 138 -254 0
-263 141 -269 255 259 -219 367 156 162 144 168 150 -246 138 -254 0
255 -263 259 -242 -219 -246 138 -254 247 0
-263 111 -246 138 -254 247 0
263 -147 -255 -269 -259 -219 -159 150 -242 -246 138 -254 153 0
266 -147 -255 242 -259 -159 150 367 -246 138 -254 0
-243 -147 -261 242 111 -159 150 -259 -246 138 -254 0
263 -147 -269 -255 111 -159 150 -259 -246 138 -254 153 0
-261 367 250 -385 -232 -256 162 144 150 -246 138 -254 0
-261 -147 -256 -259 -219 -159 150 -242 -246 138 -254 0
-375 -147 -256 -259 111 -159 150 -261 -246 138 -254 0
263 -147 -269 255 111 -159 150 -259 -246 -249 138 -254 122 0
-256 -147 -261 -255 -219 -159 150 -242 -246 -249 138 -254 0
250 -147 242 -261 -255 -256 -159 150 367 -246 -249 138 -254 0
259 263 -269 -255 -219 -159 150 -147 -246 -249 138 -254 122 0
-256 -224 -147 269 -255 -140 -159 243 -249 247 0
113 -333 -137 242 -147 243 -140 -159 367 264 205 -172 0
113 -195 -263 -111 -385 156 168 150 -246 -254 0
-381 -224 -236 263 -385 113 -269 -111 -195 156 162 144 150 -246 -254 153 0
-244 -195 113 -111 -385 156 144 150 -246 -254 0
-195 261 113 -269 -111 -385 156 162 144 168 150 -246 -254 153 0
113 141 -269 -259 -111 156 162 144 168 150 -246 -254 153 0
113 -195 259 -263 -269 -111 261 156 162 144 168 150 -246 138 -254 0
113 144 259 -269 -111 141 -263 162 156 168 150 -246 138 -254 0
113 -381 250 375 -111 -195 162 144 150 -246 -254 0
113 141 -111 -269 156 162 144 168 150 -246 138 -254 122 0
156 144 255 -269 -259 -111 141 162 -263 168 150 -246 138 -254 0
141 144 -111 -269 156 162 168 150 -246 -249 138 -254 122 0
113 -111 269 141 156 162 144 168 150 -246 -254 247 0
255 144 269 -111 -385 156 -202 150 -246 264 -254 247 0
-252 -202 269 -111 255 144 168 150 -246 264 -254 247 0
-246 138 -254 247 0
-232 -52 100 252 419 -227 -180 -336 268 -263 -385 246 0
256 -242 138 -263 168 156 144 -259 147 162 -269 159 246 -249 0
-263 -232 242 -180 -17 168 -257 -336 -137 159 -385 111 246 -249 319 264 205 -254 0
252 -137 -227 -226 242 -263 367 267 -17 246 138 -254 0
-155 -226 -257 -336 -367 377 -227 -263 252 -248 168 -225 159 -219 246 -249 264 -331 0
-248 -263 242 156 267 -257 -180 -336 147 168 159 111 246 -249 138 -254 0
256 261 156 -155 242 -137 65 245 385 144 -259 162 267 -232 209 -269 -146 111 246 138 -254 0
252 248 -263 242 -259 100 -257 156 367 -137 -17 246 138 -254 0
-263 256 261 168 -141 162 144 -259 156 147 -269 159 111 246 -249 138 -254 0
252 -232 -385 162 -242 -261 100 -263 -137 159 -249 0
-261 -263 -259 168 -242 156 162 159 -249 138 0
-232 -385 252 242 -263 100 -261 162 -137 159 -17 111 -249 319 264 205 -254 0
-266 -137 -226 -263 242 -202 -269 -261 147 367 252 -236 -17 246 138 -254 211 0
250 252 -261 -259 -257 156 162 -192 272 246 138 -254 0
-266 -385 -261 -263 168 162 -259 156 147 -269 159 111 246 -249 138 -254 211 0
-236 -266 -269 -226 -146 242 367 -261 -202 -259 39 -373 147 -155 -137 -17 246 138 -254 211 0
-266 65 156 242 168 -252 -261 -373 -259 147 162 -269 159 111 246 -249 138 -254 211 0
-231 -261 252 -202 -137 242 367 -236 -263 -259 -373 -17 138 -254 0
-373 -232 100 250 242 147 -266 -155 -263 -261 162 -259 -141 156 252 -269 -137 111 246 138 -254 211 0
-266 252 -269 367 156 242 248 -263 -373 -259 100 147 -226 -137 -17 246 138 -254 211 0
-224 252 -263 -259 -183 100 -385 -231 -256 -232 270 0
-256 -242 -263 156 144 -259 168 159 -249 138 0
-256 144 242 -385 -252 168 156 -259 -141 159 -249 138 -254 0
-263 252 367 242 -385 156 144 -256 159 111 -249 138 -254 0
-201 -232 -381 -385 252 -176 100 208 -367 -263 -219 -249 264 -331 0
-263 -256 -385 168 156 144 -259 -141 159 111 -249 138 -254 0
-252 -373 242 156 -256 144 -259 168 159 -219 -249 138 -254 0
-373 252 147 -263 248 242 -256 367 100 162 144 -259 156 261 -269 159 -17 246 -249 138 -254 211 0
-185 -373 -367 -231 -259 -219 -249 264 -331 0
-201 -373 -263 -155 252 -176 100 369 -367 -259 144 65 -219 -249 264 -331 0
-263 -141 168 111 144 -259 147 162 -269 159 156 246 -249 138 -254 211 0
-385 -263 156 256 168 144 -259 162 147 -269 159 111 246 -249 138 -254 211 0
385 256 242 168 -269 -252 144 -259 162 147 156 159 111 246 -249 138 -254 211 0
385 -263 144 242 -255 261 -195 256 162 252 -259 100 147 -269 156 159 111 246 -249 138 -254 0
-373 -266 156 248 242 -255 -263 367 252 -259 100 147 -269 -195 159 -17 246 -249 138 -254 211 0
-385 -256 168 144 -255 242 -195 -259 156 -252 159 -219 -249 138 -254 0
-263 -385 -255 -195 -256 207 162 144 -259 156 209 168 159 111 -249 138 -254 211 0
-255 -263 156 144 -259 147 162 -269 168 159 111 246 -249 138 -254 211 0
-113 -266 -255 -375 -202 -370 147 -269 0
-266 141 156 -385 -242 -259 147 162 -269 -255 159 246 -249 138 211 0
65 -373 162 -333 261 -242 256 113 -195 144 -259 243 -269 -155 -137 159 246 -249 0
-255 256 156 162 144 -259 147 141 -269 -242 159 246 -249 138 211 0
267 -385 147 -195 -367 156 -243 159 -249 264 -136 -254 0
-17 -232 -336 156 -180 147 -385 242 -333 267 113 -257 -195 -137 159 111 246 -249 319 264 205 -254 0
-226 -155 -333 267 367 -248 -257 242 -221 243 159 -17 246 -249 138 -254 0
-221 -226 323 -367 243 -333 371 118 267 -257 -219 246 264 -331 0
-385 256 242 -255 261 -195 144 162 147 -269 156 159 111 246 -249 138 -254 0
-255 -385 -367 162 147 -261 -259 156 -195 267 159 -219 -249 138 -254 0
-266 -255 -385 242 -232 -261 141 -259 147 162 -269 156 159 111 246 -249 138 -254 211 0
-236 -266 -255 -269 -261 -140 242 147 367 -202 243 250 -226 -137 -17 246 138 -254 211 0
-255 -248 -257 371 -367 243 -261 -140 -202 156 -180 159 -219 246 -249 264 -331 0
385 256 147 242 113 -333 162 144 -259 -195 156 -269 261 159 111 246 -249 138 -254 0
-266 -373 367 162 242 -243 -269 -261 -259 147 141 -155 159 -17 246 -249 138 -254 211 0
-373 -266 -261 147 242 -255 113 367 -259 141 156 -269 162 159 111 246 -249 138 -254 211 0
-255 256 156 144 -259 147 141 -269 162 159 111 246 -249 138 -254 211 0
-255 -256 156 144 -259 -140 -242 159 -249 138 0
-385 -232 -257 156 267 242 -261 162 147 -137 159 -17 111 246 -249 319 264 205 -254 0
-407 -226 -17 -202 -236 -261 -257 242 367 -137 -225 246 138 -254 0
267 -226 371 -367 -248 -257 -261 -202 156 159 246 -249 138 -254 0
267 -261 -257 111 242 -385 147 162 159 156 246 -249 138 -254 0
267 -373 248 -257 -155 -261 242 367 162 -259 147 159 111 246 -249 138 -254 0
256 144 -269 147 -259 162 111 159 156 246 -249 138 -254 153 0
39 65 -232 -146 -257 -117 -226 267 -385 -259 -155 246 0
-117 -266 39 100 65 252 267 -385 -232 -146 -269 -226 -259 -155 246 0
267 252 39 -141 -266 -155 -232 65 -123 -162 -146 -269 410 -259 -226 246 0
252 256 159 -141 248 -226 -242 -162 39 -269 65 -259 147 144 156 -137 246 -249 153 0
65 -232 159 -257 -259 -385 -146 267 -407 -242 -226 -155 39 -137 246 -249 0
-266 252 -385 100 -232 257 141 243 -269 -140 150 0
-266 -232 -385 -155 -257 39 65 -226 -242 100 252 -269 267 -259 -146 -137 159 246 -249 0
39 65 159 -385 141 243 -232 -226 -242 168 252 -269 256 -259 147 144 -155 -137 246 -249 153 0
-373 252 371 -257 -180 -263 147 267 -242 245 -259 -155 -137 159 246 -249 0
-373 252 -227 -257 -180 147 267 245 -242 100 216 -263 -259 -155 -137 159 246 -249 0
385 256 245 -257 141 156 65 252 -242 243 216 147 -269 267 -259 100 -137 159 246 -249 122 0
385 256 245 141 156 65 252 -242 243 168 -269 267 -259 147 -137 159 246 -249 122 0
-242 256 156 -269 147 -259 -162 144 159 246 -249 138 122 0
-117 -266 252 267 367 242 100 -269 -371 -137 -148 -149 138 -254 0
159 -162 -371 147 367 242 -141 -248 -269 256 156 144 -119 -148 -149 150 -249 138 -254 153 0
-141 256 242 -269 111 -259 147 144 159 156 246 -249 138 -254 153 0
-17 -232 -257 267 256 242 141 168 -269 -385 156 147 -137 159 111 246 -249 319 264 205 -254 122 0
267 -248 111 141 242 -257 147 -269 256 168 159 156 246 -249 138 -254 122 0
385 248 156 -259 -263 242 168 -257 -245 147 159 111 246 -249 138 -254 0
385 -226 -367 -257 267 -259 64 -219 246 264 -136 -254 0
385 248 147 -257 -259 242 168 267 -263 156 159 111 246 -249 138 -254 0
-373 65 -245 -257 113 -195 -259 242 147 -333 -155 -137 159 -219 246 -249 264 205 -331 0
-266 -17 -232 267 141 242 -167 100 257 -269 -385 156 147 -137 159 111 150 -249 319 264 205 -254 0
-192 -263 168 267 147 -248 242 -255 -195 156 159 111 -249 138 -254 0
-266 -373 -245 -263 -255 -195 242 168 147 -269 248 -259 156 159 111 246 -249 138 -254 211 0
-266 -373 -17 113 -226 248 -333 -263 267 242 -195 100 367 -269 -167 -259 156 159 147 246 -249 138 -254 211 0
267 256 147 242 141 -269 156 -259 168 159 111 246 -249 138 -254 122 0
113 -248 168 -195 156 -257 242 -263 -255 159 111 246 -249 138 -254 0
248 -263 168 -259 367 113 -257 242 -195 -333 156 159 -17 246 -249 138 -254 0
144 256 111 -259 147 -269 159 156 246 -249 138 -254 122 0
-232 -385 -257 371 246 0
-385 252 248 162 -257 250 -141 144 -269 -266 -259 156 -147 246 153 0
-141 -263 156 -257 248 252 -147 162 -259 -373 246 0
248 65 162 156 -155 -147 252 250 -269 -141 -259 -257 -266 144 246 153 0
-141 256 153 144 -269 -242 -259 156 -147 159 246 -249 138 0
-263 -266 168 162 141 -242 -269 156 -259 -257 159 246 -249 138 0
141 256 168 156 144 -269 -242 -259 -257 162 159 246 -249 138 122 0
65 -232 243 -140 162 -257 -155 141 -168 250 -266 -269 -385 -259 -147 246 0
65 248 -257 100 243 393 -140 141 252 256 -269 -119 -259 -155 156 122 0
65 248 -147 -257 -162 -140 141 393 -155 156 -269 243 -259 252 256 246 122 0
256 -242 -269 -147 -259 144 156 159 246 -249 138 122 0
156 159 162 -141 242 -257 -269 -266 -259 -147 144 -371 111 120 -249 138 -254 153 0
-373 -375 -261 -202 -147 -155 -259 -141 0
-141 -261 -373 -192 -263 -147 367 242 162 -259 156 159 -17 -249 138 -254 0
256 159 153 242 -141 -269 144 -259 156 -147 -371 111 120 -249 138 -254 0
144 256 242 -269 -141 -259 156 -147 159 111 246 -249 138 -254 153 0
-232 -385 256 168 162 -257 242 141 -269 144 -137 159 -17 111 246 -249 319 264 205 -254 122 0
-373 -231 -252 -167 -367 -259 159 -219 -249 264 -331 0
-266 -232 156 168 371 -257 162 -263 242 -269 -373 -259 141 159 111 246 -249 138 -254 0
-266 -232 111 168 -263 162 -257 242 -269 385 -259 141 159 156 246 -249 138 -254 0
-373 -333 -17 -261 -235 113 -183 -257 162 141 242 -259 371 -137 159 -155 -219 246 -249 319 264 205 -254 0
-375 252 -367 -263 -266 -140 -257 162 243 141 -269 371 -219 246 264 -331 0
-17 256 371 -257 141 168 242 -269 -248 162 144 156 -137 159 -219 246 -249 319 264 205 -254 122 0
-266 -263 111 168 -257 162 242 -269 -248 -259 141 159 156 246 -249 138 -254 0
250 -236 -140 -261 367 243 -255 -371 -202 -257 242 -137 246 138 -254 0
-373 -263 -243 168 162 141 -261 -17 242 367 -259 159 156 -249 138 -254 0
-385 -232 156 168 -367 -263 -261 162 -195 242 -255 -137 159 -17 111 -249 319 264 205 -254 0
375 -255 250 -263 243 100 -140 162 252 0
-255 -232 141 -261 -263 168 156 242 162 -259 159 111 -249 138 -254 0
-192 -255 141 168 -261 162 156 242 -259 -263 159 111 -249 138 -254 0
-250 367 -255 -259 -202 242 141 156 -137 159 -17 111 -249 319 264 205 -254 0
256 159 -257 141 242 -162 -269 156 -259 -147 -371 111 -148 -249 138 -254 122 0
-162 -263 -259 385 367 -147 -192 242 -255 -195 156 159 -17 -249 138 -254 0
256 144 -259 -269 111 159 156 246 -249 138 -254 122 0
-232 269 -257 159 -242 -385 121 -137 246 -249 247 0
-232 159 -242 -259 -155 65 -257 269 -137 246 -249 247 0
-232 -226 252 -155 267 -231 100 -192 -263 -242 269 -385 138 247 0
147 -242 162 -263 257 156 269 -266 -259 168 144 159 120 -249 138 247 0
-385 252 -192 -147 -232 -141 -263 269 247 0
-141 -263 162 -147 -155 252 -232 -192 -259 269 156 247 0
-141 -232 -385 -147 162 -261 250 269 247 0
-141 -263 -259 252 -232 269 -155 -162 156 247 0
-266 -232 247 263 257 -162 -242 -155 269 -259 -141 159 -249 -194 0
-141 -242 156 269 256 -259 257 144 159 120 -249 138 247 0
-266 393 162 168 -263 257 -242 156 269 -259 243 159 150 -249 138 247 0
-266 -370 -232 261 243 162 147 393 -140 257 -372 269 -385 144 120 0
261 393 156 147 162 257 -242 269 -266 -259 243 144 159 120 -249 138 247 0
243 269 162 -255 -242 -261 -259 156 159 -249 138 247 0
144 -242 156 257 162 269 -266 -259 147 141 159 120 -249 138 247 0
-147 -255 -155 -259 -168 -140 243 248 269 64 247 0
-145 -261 269 -385 -147 162 250 -232 247 0
-266 -147 64 162 -155 -168 -140 257 248 269 393 -259 250 243 150 247 0
144 -242 156 269 256 -259 257 162 159 120 -249 138 247 0
-255 252 123 156 269 -192 -242 243 -259 -263 159 -249 138 247 0
-266 -242 -263 168 -268 147 156 269 -259 141 159 120 -249 138 247 0
141 -266 147 257 -242 156 269 -259 168 159 120 -249 138 247 0
-232 -155 -259 -147 -162 252 269 -263 -192 156 247 0
269 144 256 -259 -242 156 159 246 -249 138 247 0
-263 -232 -257 156 242 269 -259 168 159 111 138 -254 247 0
-232 269 -257 242 -385 -137 111 138 -254 247 0
385 -146 -259 -231 267 -372 -257 242 269 64 121 -137 159 -17 -219 246 -249 319 264 205 -254 0
372 385 64 -257 242 -227 -259 -219 138 -254 247 0
-231 385 -257 242 269 -259 64 -137 111 138 -254 247 0
-263 252 -372 -257 242 269 -137 111 246 138 -254 0
-263 252 100 216 -257 242 269 -137 111 138 -254 247 0
256 -226 147 168 263 250 162 -372 -257 242 269 144 -137 111 138 -254 247 0
-266 -226 147 -257 -372 141 -140 243 162 367 242 -137 269 144 261 -17 246 138 -254 0
-266 -226 243 141 147 -140 250 162 -257 242 -137 269 144 -372 111 138 -254 247 0
256 -248 162 -257 242 269 111 156 144 159 147 138 -254 247 0
-266 -226 -372 -227 147 367 -140 121 207 168 -336 243 268 242 269 263 -137 -17 246 138 -254 0
-266 -226 263 243 -140 147 207 168 -257 242 -137 269 -372 111 138 -254 247 0
-266 -248 147 207 168 243 -257 242 269 -140 156 159 111 138 -254 247 0
256 144 -259 -257 111 159 156 138 -254 247 0
-252 121 -373 -372 -231 -167 269 -259 159 -249 0
-373 -231 252 -263 -192 -372 367 242 269 -137 -17 138 -254 0
-155 248 -372 111 162 367 257 242 269 256 -259 168 144 159 147 -249 138 -254 122 0
-421 269 -367 121 -372 -231 -219 264 -331 0
-232 -385 -263 -372 -367 121 252 100 -192 269 -219 264 -331 0
-155 248 -372 162 111 257 242 269 256 -259 168 144 159 147 138 -254 247 0
-370 -266 -375 -121 -372 -146 147 162 257 -258 39 144 120 122 0
-266 121 -372 -263 -370 367 147 252 162 257 242 269 -375 144 -137 -17 120 138 -254 0
256 -137 -372 -236 367 252 -146 147 162 168 257 242 269 -226 144 39 -17 120 138 -254 122 0
-266 -226 100 147 144 -372 250 162 252 257 269 -367 -263 -219 120 138 -254 -152 0
-373 -239 -367 -377 65 -259 -155 -219 264 -331 0
372 248 147 162 -219 257 269 256 -259 168 144 159 156 138 -254 247 0
-375 -377 118 -370 -367 -266 147 162 257 -239 144 -219 120 264 -331 0
367 -263 -17 252 -192 -155 242 -372 -258 -337 159 -248 -249 138 -254 0
367 242 -372 162 144 257 111 269 256 -259 168 156 159 -147 -249 138 -254 122 0
-232 -385 256 168 141 -372 -140 162 257 242 269 -367 144 159 -219 138 -254 247 0
393 252 -266 -263 -140 250 100 -372 162 243 257 269 -367 -219 150 138 -254 -152 0
372 248 -219 162 144 257 269 256 -259 168 -195 159 156 138 -254 247 0
-266 -375 243 372 393 -140 -367 -377 162 257 269 -263 -219 150 264 -331 247 0
-266 123 -17 -372 367 168 257 242 269 385 -259 156 159 -162 -249 138 -254 0
-248 -266 -162 156 -372 367 168 257 242 269 263 147 159 -219 138 -254 247 0
-266 -232 -219 147 -195 -372 -367 257 269 -410 168 159 156 -249 138 -254 0
-266 -226 168 -140 -263 243 141 147 -367 252 121 -268 269 -372 -219 120 264 -331 0
-266 242 -162 257 111 269 -372 -259 168 159 156 138 -254 247 0
372 -266 147 -195 156 -231 248 257 269 -367 -259 168 159 -219 138 -254 247 0
-266 -370 -377 -367 -263 118 243 141 -140 147 -268 269 372 -219 120 264 -331 247 0
-373 -231 -368 121 -255 243 -259 -140 -372 269 0
-266 248 367 -155 243 257 242 269 -372 -259 -168 159 111 120 -249 138 -254 122 0
-375 121 -372 147 -266 243 -255 -140 162 257 242 269 367 144 159 120 -249 138 -254 0
243 367 156 -248 -372 162 141 257 242 269 -266 147 144 159 120 -249 138 -254 122 0
-266 144 156 111 242 269 367 -259 257 -372 159 -168 120 -249 138 -254 122 0
-232 -243 144 -266 147 141 162 257 269 -385 -367 156 159 138 -254 247 0
-367 -232 -219 -372 144 162 257 269 -266 -259 147 141 159 156 138 -254 247 0
-255 245 -219 147 -367 -372 243 162 257 269 -266 -259 -140 144 159 156 138 -254 247 0
-231 385 -140 -259 64 243 -255 -368 -367 -219 264 -331 0
372 -266 156 147 -232 -367 162 257 269 -231 -259 141 159 -219 138 -254 247 0
-266 -255 -375 243 245 147 162 257 269 -367 144 -219 138 -254 247 0
256 144 -259 111 159 156 138 -254 247 0
-224 -232 -242 -259 -256 -155 -257 -137 159 246 -249 0
-158 248 168 257 156 -256 -269 -242 162 -224 -259 -272 -137 159 150 -48 -249 122 0
-272 -256 257 156 -269 -242 -259 141 144 159 120 -249 138 0
-224 -256 153 -141 168 257 -155 -272 -242 -162 -232 -259 -269 159 120 -249 -194 0
-242 -256 156 -269 144 -259 257 168 159 120 -249 138 122 0
-256 -242 156 -259 144 -269 159 246 -249 138 122 0
248 -201 -155 -257 242 -256 -259 367 144 -141 111 246 -249 138 -254 0
-225 -232 -385 147 -367 -381 -257 -176 156 144 159 -219 246 -249 264 -331 0
267 -232 -219 -367 -381 -257 -176 -259 147 144 159 156 246 -249 264 -136 -254 0
-261 -232 -385 162 -367 -381 -257 144 159 -219 246 -249 264 0
65 -232 -219 -367 -261 -381 -257 -259 162 144 159 156 246 -249 264 -331 0
248 -256 168 111 -257 242 -269 -141 -259 162 144 159 156 246 -249 138 -254 211 0
-201 367 -17 65 -381 242 -259 -137 -257 -232 -155 144 111 246 -249 319 205 -254 0
-381 -232 162 168 111 -367 261 -257 -269 -176 -259 147 144 159 156 246 -249 138 -254 211 0
-232 -17 141 162 -385 168 -367 -381 -257 242 258 144 261 -137 159 111 246 -249 319 264 205 -254 122 0
-17 -232 -269 168 -195 -367 -381 -257 242 -385 144 -267 -137 159 111 246 -249 319 264 205 -254 122 0
-333 -232 -385 -195 113 -367 -381 -257 144 159 -219 246 -249 264 -331 0
-224 -385 -232 242 -256 -259 -155 -249 138 -254 0
-224 -256 242 367 -257 -137 -17 246 -249 319 205 -254 0
144 -256 111 -259 -257 -269 159 156 246 -249 138 -254 122 0
-375 -373 162 111 147 367 257 242 -141 -256 -259 -269 144 159 156 246 -249 138 -254 153 0
-373 -244 111 162 367 257 144 242 -141 -259 -256 -269 159 156 246 -249 138 -254 153 0
231 252 156 -192 272 242 367 -259 -137 -17 138 -254 0
-232 -256 153 367 -141 257 144 -269 242 -259 156 -162 159 111 120 -249 138 -254 0
248 -373 168 162 147 -17 367 257 242 261 -256 -259 -269 144 159 156 246 -249 138 -254 153 0
248 -373 162 141 147 -17 144 257 242 367 -256 -259 168 -269 159 156 246 -249 138 -254 153 0
-373 -236 100 252 162 243 -140 141 156 367 257 242 -137 -259 -269 -263 -17 150 -48 138 -254 0
-373 -256 162 141 168 -17 257 144 242 367 -259 250 -269 159 156 120 -249 138 -254 153 0
-146 -232 261 -370 147 162 243 -368 -140 141 64 -373 257 245 -259 -269 120 211 0
-370 -231 -375 -269 147 243 -261 -368 -140 -202 257 385 -259 120 211 0
-232 385 141 162 -17 144 257 242 367 -256 -259 147 -269 159 156 120 -249 138 -254 211 0
-232 385 141 -17 144 257 242 367 -256 -259 162 -269 159 156 120 -249 138 -254 153 0
-370 385 -269 147 252 168 243 -140 64 -368 257 242 367 -259 -255 -17 120 138 -254 153 0
-373 -377 -231 267 -263 -370 0
385 -256 141 147 -17 257 144 242 367 -259 168 -269 159 156 120 -249 138 -254 153 0
-232 -256 111 242 144 367 -259 257 -269 159 156 246 -249 138 -254 153 0
115 -367 -141 257 -269 -259 156 144 159 111 246 -249 138 -254 153 0
-385 -176 147 -219 144 -367 115 257 -269 162 -259 -232 168 159 156 120 -249 138 -254 153 0
-385 -232 -219 147 267 162 -367 115 243 257 -269 -259 141 144 159 156 150 -48 -249 138 -254 0
-367 -232 162 -219 144 257 242 -269 -256 -259 147 141 159 156 150 -48 -249 138 -254 211 0
-385 -232 -219 144 -367 257 242 -269 -256 -259 162 141 159 156 120 -249 138 -254 153 0
-367 65 -219 141 144 257 242 -232 -256 -259 162 -269 159 156 120 -249 138 -254 153 0
-385 -232 147 -219 141 -367 257 242 -269 -256 -259 168 144 159 156 120 -249 138 -254 153 0
248 -256 242 111 144 -259 257 -269 159 156 246 -249 138 -254 153 0
261 -385 162 111 257 -141 -269 -259 -256 144 159 156 150 -48 -249 138 -254 153 0
-248 -256 111 257 144 -269 242 -259 367 162 159 156 150 -48 -249 138 -254 122 0
-115 -248 -272 168 147 367 -14 257 242 -269 -256 156 159 120 -249 205 -254 153 0
-248 -256 257 111 144 -269 -259 242 367 159 156 120 -249 138 -254 122 0
213 369 100 144 244 -367 162 -176 209 212 207 252 -263 -219 264 205 211 0
115 -248 162 168 -219 207 -367 257 -269 -176 -259 147 144 159 156 120 -249 138 -254 153 0
-368 -375 -370 147 243 118 162 -255 -140 -367 257 -269 -219 150 264 -136 -254 211 0
-248 115 162 -219 144 -367 -375 -224 257 -269 -259 147 141 159 156 150 -48 -249 138 -254 211 0
-176 -375 100 144 162 252 -367 244 243 141 -140 -368 257 -263 -269 369 -219 150 -48 264 -331 0
115 -367 162 -219 144 257 -269 141 -259 -176 -248 159 156 120 -249 138 -254 153 0
369 -176 144 -367 100 115 243 118 147 -263 -226 244 -224 257 252 -269 -140 -219 150 -48 264 -331 211 0
144 -256 -259 111 -269 159 156 246 -249 138 -254 122 0
-385 -232 257 -256 -224 -258 -182 247 0
269 144 -256 -259 -242 156 159 246 -249 138 247 0
65 -201 -155 -232 242 269 -176 -259 -381 367 144 111 138 -254 247 0
-232 269 144 242 -385 -256 -259 -155 -367 -201 -219 138 -254 247 0
-201 248 -256 144 -259 242 -155 269 111 138 -254 247 0
-224 -258 257 -256 367 242 138 -254 247 0
-381 -176 -372 162 -219 121 144 269 -261 -385 -367 159 156 -249 264 -331 -152 0
144 111 -259 159 156 138 -254 247 0
-412 -235 -263 -375 419 252 -257 246 0
-423 -235 -242 -137 159 -249 0
252 -336 162 375 -227 419 100 -263 250 268 -180 246 0
-235 -375 -263 419 252 -261 -242 -257 -137 159 246 -249 0
-235 -375 -221 -333 -412 243 -242 -257 -180 -137 159 246 -249 0
-141 267 252 -162 -146 -263 -242 -257 159 246 -249 -194 0
-162 -141 -147 0
-263 259 -141 -162 -242 -257 -269 -266 252 156 159 246 -249 -194 0
-242 256 -269 259 156 144 159 246 -249 138 122 0
-252 259 -141 367 242 -257 -269 -266 162 156 159 -17 246 -249 138 -254 0
-252 259 162 242 -257 -269 -266 -141 156 159 111 246 -249 138 -254 0
259 -263 156 -141 367 242 -257 -269 -266 252 162 -137 111 246 138 -254 0
-375 -235 252 -367 -263 -261 -202 -257 -219 246 264 -331 0
252 -225 -367 371 -141 -263 162 -257 -180 -219 246 264 -331 0
-236 250 -255 243 367 -261 -140 -202 242 -257 -137 -17 246 138 -254 0
-261 -252 168 -255 141 162 242 -257 -180 159 111 246 -249 138 -254 0
-255 -225 -257 -17 147 367 -195 -202 242 -261 159 -375 246 -249 138 -254 0
367 -255 -257 147 -17 141 162 242 -225 159 -261 246 -249 138 -254 0
-261 113 162 -17 367 141 -168 -255 242 -257 159 267 246 -249 138 -254 0
-375 267 147 -255 -195 -367 371 -261 -202 -257 -180 159 -219 246 -249 138 -254 0
-255 113 -367 147 -261 162 267 141 371 -257 -180 159 -219 246 -249 138 -254 0
267 375 147 -367 -243 141 162 159 -249 264 -136 -254 0
-261 141 -255 -168 162 242 -257 -269 259 159 111 246 -249 138 -254 0
-255 -263 -257 141 -261 367 162 242 252 159 111 246 -249 138 -254 0
-263 -255 -261 371 141 252 162 242 -257 159 246 -249 138 -254 0
-263 259 -162 242 -257 -269 -266 -141 156 159 111 246 -249 138 -254 0
-221 -333 243 -252 367 -167 242 -257 -137 159 -17 246 -249 319 264 205 -254 0
-17 113 -333 -167 -195 242 -257 -180 -252 -137 159 -219 246 -249 319 264 205 -254 0
259 -269 367 -195 -263 -162 242 -257 -255 -266 252 156 159 -17 246 -249 138 -254 0
252 -255 147 -367 371 -263 -225 -195 -257 -180 159 -219 246 -249 264 -331 0
377 252 216 100 -243 147 267 -195 -367 159 -249 264 -136 -254 0
-269 256 259 156 144 159 111 246 -249 138 -254 122 0
-263 252 371 -141 267 -372 162 -257 269 246 0
-261 159 -242 162 -257 -372 269 -375 -137 246 -249 122 0
371 259 252 162 -257 -242 269 256 -141 156 144 -137 159 246 -249 247 0
-263 420 159 -227 100 252 216 -336 268 -242 269 -371 -137 -249 247 0
-263 159 -371 100 216 268 -257 -242 269 252 -137 -148 -249 247 0
419 420 -371 -412 250 -336 268 269 247 0
371 259 -140 162 -257 -242 269 256 243 156 -137 159 246 -249 247 0
-371 259 -168 -227 141 162 -257 -242 269 -266 243 156 144 159 246 -249 -194 247 0
-119 256 156 -140 259 162 -257 269 121 250 243 246 247 0
259 156 -162 -257 -242 269 -266 252 -141 159 246 -249 -194 247 0
-263 159 -242 252 -257 269 -372 371 -137 246 -249 0
371 259 -140 252 168 -257 -242 269 256 243 144 -137 159 246 -249 247 0
-235 250 -121 100 -258 -263 -372 252 0
-263 159 -242 269 100 -202 -261 252 -372 -137 -249 122 0
-261 -242 159 -372 -202 269 -375 -137 -249 122 0
-115 259 -242 269 257 256 162 156 159 150 -48 -249 138 247 0
-141 267 -263 -226 -146 -372 39 252 -162 -258 0
-263 252 -141 -162 257 -242 -266 259 -258 -182 156 159 150 -249 -194 247 0
-255 -407 420 269 -263 -372 -140 -226 252 168 267 -242 -146 138 0
-242 256 269 259 156 144 159 246 -249 138 247 0
-372 -252 -167 269 -257 242 121 -137 159 -17 246 -249 319 264 205 -254 0
-252 -167 -257 242 269 159 111 138 -254 247 0
267 -261 -257 -372 162 -141 242 269 159 138 -254 247 0
141 -255 -372 -257 162 269 242 -261 159 111 138 -254 247 0
261 256 147 144 -195 162 121 269 119 259 156 -367 159 -219 138 -254 247 0
-227 -371 367 261 147 -372 -195 162 -336 121 268 242 269 256 259 156 144 159 -249 138 -254 0
267 -367 147 121 -255 -195 119 269 159 -219 138 -254 247 0
267 -255 -257 -162 269 242 -372 159 111 138 -254 247 0
-235 -258 -239 -263 -192 -121 162 242 -167 159 -17 -249 138 -254 0
-252 -225 147 121 -372 168 242 269 159 -249 138 -254 0
-201 121 -261 -192 367 162 -372 252 242 269 -263 -17 -249 138 -254 0
-263 -266 156 168 -261 -372 257 242 259 269 162 -141 159 111 150 -249 138 -254 122 0
267 372 147 -202 -367 168 -261 -252 269 159 138 -254 247 0
-263 -266 168 -261 162 257 242 259 269 -141 156 159 111 138 -254 247 0
-252 -333 113 269 -195 -372 -167 242 121 -137 159 -249 264 205 -254 0
-372 -261 -255 141 269 100 -263 -192 162 242 -167 159 111 -249 138 -254 122 0
-255 -252 269 -167 -367 -195 159 -219 138 -254 247 0
-255 -235 -258 -121 162 141 242 367 159 -249 138 -254 0
-235 -266 259 -372 367 162 257 242 269 -261 -168 156 159 150 -249 138 -254 0
-261 -266 -372 162 257 242 259 269 -168 156 159 -219 138 -254 247 0
-375 267 -255 -367 -261 -195 -202 147 269 159 -219 138 -254 247 0
-115 259 242 269 257 256 162 156 159 111 138 -254 247 0
-141 -266 -372 -263 257 242 -258 -162 259 156 159 111 138 -254 247 0
-255 -121 -167 -17 -258 -192 -263 -195 242 367 159 -239 -249 138 -254 0
-255 367 -192 -372 -195 -263 -167 242 269 159 -17 -249 138 -254 0
-266 -263 -372 257 242 259 156 -162 269 159 111 138 -254 247 0
256 144 111 159 156 138 -254 247 0
244 -137 100 -263 -257 -180 -242 -256 144 252 159 246 -249 0
-224 -137 159 -257 -242 162 -256 -261 246 -249 0
-224 263 -162 -257 156 -242 -269 -141 -256 259 159 246 -249 -194 153 0
259 156 -269 -257 -256 -242 144 159 246 -249 138 153 0
-115 127 250 252 -256 100 -263 0
259 156 162 100 257 -263 -242 -269 244 -256 252 144 -137 159 120 -249 0
-263 259 -162 252 168 257 -242 -269 -256 -141 156 144 159 150 -249 -194 211 0
259 156 257 -269 -256 -242 168 144 159 120 -249 138 153 0
259 156 -269 -256 -242 144 159 246 -249 138 -254 153 0
-252 -17 -256 -257 242 -167 144 -137 159 -219 246 -249 319 264 205 -254 0
-115 -256 -257 242 -137 -17 246 319 205 -254 0
-201 252 -263 -257 242 367 144 -256 -17 246 -249 138 -254 0
252 -225 144 -263 162 -176 100 216 369 -257 -180 -367 -141 159 -219 246 -249 264 -331 0
-141 259 -263 168 -257 242 -269 -256 162 144 159 111 246 -249 138 -254 0
259 156 263 367 168 -257 -269 -256 162 -141 144 159 -17 246 -249 138 -254 153 0
-381 267 -261 371 147 162 144 -257 -180 -367 159 246 -249 138 -254 0
267 -224 -371 -235 -225 -367 -226 -381 -227 162 -261 159 -219 -249 264 205 -331 0
-263 252 371 -195 -255 -381 -257 144 159 246 -249 0
-255 252 -17 -195 -367 -263 100 -167 -176 -257 -180 115 242 -137 159 144 111 246 -249 319 264 205 -254 0
-192 -381 144 371 162 -261 252 -263 -257 242 159 246 -249 138 -254 0
-263 259 162 168 -257 242 -269 -256 141 144 159 111 246 -249 138 -254 0
-256 -255 162 -17 144 -257 242 367 -195 159 -261 246 -249 138 -254 0
-224 -333 -336 268 -227 141 -381 -261 -367 162 113 159 -219 246 -249 264 -331 0
-176 252 244 -263 -227 369 -367 -336 268 100 144 -219 246 264 -331 0
-226 252 -219 -263 -367 -225 -257 -180 371 246 264 -331 0
-263 259 -167 100 216 -257 242 -269 -256 -162 144 159 111 246 -249 138 -254 0
-141 -162 367 263 -244 168 -257 242 -269 259 156 144 159 111 246 -249 138 -254 153 0
-381 -224 -195 -367 147 -243 267 159 -249 264 -136 -254 0
113 -224 -336 -195 147 -381 -333 -227 -367 267 268 159 -219 246 -249 264 -136 -254 0
-370 -368 -17 -371 -255 -225 -227 -140 -257 242 -180 -137 243 111 246 319 205 -254 0
-227 259 367 -244 -381 -257 242 -269 -176 -168 144 159 111 246 -249 138 -254 0
-168 259 -257 242 -269 -256 367 144 159 111 246 -249 138 -254 0
-381 -224 -17 147 -255 267 -195 -257 242 -180 -137 159 -367 111 246 -249 319 264 205 -254 0
267 259 -367 -224 141 162 -381 -257 242 -269 147 -176 144 159 111 246 -249 -194 205 -254 0
118 -226 144 -367 147 243 267 141 162 -381 -257 242 -269 259 371 159 111 246 -249 138 -254 0
259 156 -269 -256 -257 144 159 111 246 -249 138 -254 153 0
-369 -167 162 -252 415 -224 257 242 -269 -256 259 156 -137 159 -17 120 -249 319 264 205 -254 -181 0
-256 367 -17 168 257 242 259 -269 156 -141 159 -224 120 -249 138 -254 122 0
-377 259 162 -244 367 -158 257 242 -269 -263 156 144 159 120 -249 138 -254 0
-192 -115 -255 -167 -195 -17 367 242 -263 159 -256 -249 138 -254 0
259 156 257 242 -269 -256 367 168 144 159 -17 120 -249 138 -254 122 0
-224 -367 168 -235 -261 267 162 147 -252 -225 -381 159 -219 -249 264 205 -331 0
-224 115 -141 259 -263 168 257 -269 -367 156 159 -219 120 -249 264 205 -254 211 0
113 -252 144 -195 -167 -333 115 -367 159 -219 -249 264 -331 0
113 369 144 100 -263 -333 -140 243 252 244 -176 0
259 156 -367 -263 115 257 -269 244 -176 168 144 159 -219 120 -249 264 205 -254 211 0
-263 259 -381 -367 -244 -167 100 216 257 -269 -141 -176 156 144 159 -219 120 -249 138 -254 211 0
259 156 257 -269 -256 242 168 144 159 111 120 -249 138 -254 122 0
-224 -256 367 -261 141 162 257 242 -255 159 -17 -249 -194 205 -254 -181 0
-261 -255 -256 -17 -168 257 242 367 144 159 267 -249 138 -254 -181 0
259 156 -256 -269 144 159 111 246 -249 138 -254 122 0
269 144 -381 -257 -242 159 246 -249 -194 247 0
-256 -201 144 -257 242 367 269 -17 138 -254 247 0
-224 -279 -381 -367 121 -227 -219 246 264 -331 247 0
-201 224 208 -176 -415 -219 -249 0
144 111 -257 159 156 138 -254 247 0
259 372 168 -182 -115 -242 257 147 -256 263 156 159 150 -249 -194 247 0
259 156 -369 257 269 -242 -256 168 159 150 -249 138 247 0
-369 -256 257 269 -242 259 156 159 150 -48 -249 138 247 0
259 156 252 168 -381 244 -242 257 269 -141 -256 162 144 -137 159 150 -249 247 0
259 156 168 -381 -242 257 269 252 -256 -141 144 159 150 -249 -194 247 0
-368 259 243 -140 141 252 168 244 257 -258 -256 261 156 144 120 247 0
-224 -381 159 162 269 -242 -372 -261 -137 -249 122 0
244 252 159 -372 168 -242 257 -263 -256 269 144 -137 -249 247 0
259 156 -242 257 269 168 -381 -256 144 159 150 -249 138 247 0
259 156 269 257 -256 -242 144 159 150 -48 -249 138 247 0
381 -256 257 -258 242 144 -137 138 -254 247 0
244 -263 168 252 121 -372 -367 257 269 -256 144 -219 264 -331 247 0
259 156 168 -367 -224 263 -381 257 269 242 -141 144 159 -219 138 -254 247 0
-224 -381 156 168 -140 -372 259 263 121 257 269 -367 243 -219 264 -331 0
-243 259 -168 -372 147 -224 -367 257 269 -176 -381 144 159 150 -249 138 -254 -152 0
244 -256 269 257 259 156 144 159 -219 138 -254 247 0
-244 -224 -219 -256 -381 257 242 269 138 -254 247 0
-158 -244 252 367 -263 -137 242 -372 269 144 -17 -249 138 -254 0
259 156 127 263 -372 367 168 -244 242 257 269 162 -141 144 159 150 -249 138 -254 0
263 259 367 168 -244 242 257 269 -141 156 144 159 -219 138 -254 247 0
-225 372 -244 -141 -261 267 -367 127 269 144 159 -219 -249 264 205 -331 247 0
-368 -121 -375 -372 243 -140 -202 141 257 259 -258 120 122 0
261 259 -372 367 243 -140 141 162 -244 242 257 269 147 144 150 -48 138 -254 0
259 156 -244 242 257 269 367 -168 144 159 138 -254 247 0
245 243 -367 261 -140 141 162 257 269 259 -219 138 -254 247 0
144 111 159 156 138 -254 247 0
-266 -226 -156 -146 -141 144 168 261 -257 252 39 -269 246 153 0
-266 263 -156 -141 -226 -261 -257 -375 -269 246 153 0
256 -242 144 168 -257 -269 -156 -141 159 246 -249 138 -172 153 0
-266 261 162 141 144 168 -242 252 -257 -269 243 -137 159 246 -249 153 0
-263 252 159 100 162 -242 -257 -261 -137 246 -249 0
256 252 141 162 168 144 -242 -257 -269 243 -137 159 246 -249 122 0
-255 243 -156 -162 -140 -263 -257 252 246 0
252 -226 -263 -146 -162 39 -140 141 243 100 -156 -257 256 -269 246 0
-266 261 -269 -156 -140 147 141 162 243 -257 245 -154 246 0
250 -236 -156 243 -140 -255 -202 -154 -257 -261 246 0
256 -156 -257 -269 -242 144 159 246 -249 138 -172 122 0
261 -266 -371 367 162 147 168 242 -119 -257 -269 144 159 -148 -149 -249 138 -254 153 0
256 -141 242 168 -257 -269 -156 144 159 111 246 -249 138 -254 153 0
-266 261 252 -263 -243 147 -195 100 216 242 -255 -257 -269 159 111 246 -249 138 -254 0
-263 252 111 242 -257 -156 -137 -147 246 138 -254 0
-266 261 141 168 242 162 -257 111 -269 144 159 -156 246 -249 138 -254 153 0
-255 -263 100 141 -261 162 252 250 242 -257 159 111 246 -249 138 -254 0
267 -243 141 147 162 -261 242 -257 159 111 246 -249 138 -254 0
-243 256 168 242 162 -257 -269 -156 144 159 111 246 -249 138 -254 153 0
256 -252 147 162 141 168 242 -269 -257 -261 159 111 246 -249 138 -254 0
256 -252 162 141 168 242 -269 -257 -261 -156 159 111 246 -249 138 -254 0
256 243 147 367 144 -255 162 141 168 242 -261 -257 -269 252 159 111 246 -249 138 -254 153 0
-255 243 147 -367 252 256 162 141 168 242 -261 -257 -269 144 159 111 246 -249 138 -254 153 0
-192 -263 147 371 252 -367 -261 -225 162 242 -257 159 -219 246 -249 138 -254 0
256 243 147 144 -261 141 168 242 162 -257 -269 252 159 111 246 -249 138 -254 122 0
-252 256 367 -371 141 168 242 -162 -257 -269 -156 159 -148 -149 -249 138 -254 0
-266 159 -243 367 147 141 162 242 -119 -257 -269 -371 -148 -149 -249 138 -254 0
256 -269 111 -257 144 159 -156 246 -249 138 -254 122 0
-272 -224 168 -242 -141 -256 -257 -269 -156 159 246 -249 -194 0
-224 -256 141 -272 -242 258 243 162 -257 -137 159 246 -249 122 0
-224 -226 -269 -140 371 141 162 -256 261 -257 243 246 -249 0
244 -256 -242 -257 -269 -156 144 159 246 -249 138 122 0
-224 -381 168 -367 -272 -243 141 -227 162 147 -371 -336 268 -269 159 -219 -249 264 -136 -254 0
-272 -17 243 252 168 207 -195 -381 261 162 -367 242 244 -257 147 -269 144 -137 159 111 246 -249 319 264 205 -254 122 0
-224 -381 -367 -261 -227 -371 -235 162 -226 267 159 -219 -249 264 205 -254 0
-256 -244 168 -141 -257 144 -269 -156 159 111 246 -249 138 -254 0
-418 -158 -367 -225 -370 -244 144 -219 -249 264 0
-17 -137 162 371 -140 243 168 -244 -176 -257 -269 -156 144 261 252 159 -219 246 -249 319 264 205 -254 0
-201 -225 243 -371 393 162 -256 261 -140 207 252 242 -226 -257 258 144 367 111 246 -249 138 -254 122 0
-201 252 -371 261 162 -256 144 -140 207 -244 242 -225 -226 -257 393 258 243 111 246 -249 138 -254 122 0
252 393 243 258 162 -156 -147 207 -140 242 -257 -371 261 -137 111 246 138 -254 122 0
-235 -226 -225 -236 -137 -261 367 -202 242 -257 -371 -17 246 138 -254 0
-201 -236 -225 -371 -261 -244 -202 242 -235 -226 -257 144 -176 111 246 -249 138 -254 0
-201 252 -236 144 250 -202 -267 -256 -140 393 242 367 -257 -269 -261 243 -17 246 -249 138 -254 122 0
-201 -176 -367 144 -371 -257 268 -244 -219 -148 -249 264 -331 0
111 -269 -257 144 159 -156 246 -249 138 -254 122 0
-263 267 252 -146 144 168 -256 -242 159 -249 -194 0
261 -242 267 168 162 257 -269 -156 144 159 150 -48 -249 138 153 0
-226 -235 -263 250 252 -412 162 -382 100 216 0
-370 252 -141 -261 -225 -263 -202 250 100 -156 0
-117 267 -263 250 -235 252 0
-226 -137 159 252 -263 162 168 -242 -261 267 -249 0
-266 267 -261 162 168 -242 257 -269 -156 159 150 -249 138 0
-224 -261 -256 -263 -192 252 162 100 250 -156 -147 -249 0
-224 -156 -256 162 168 -261 -242 257 -147 -269 159 120 -249 138 -254 0
-369 250 -256 267 -226 -261 39 -146 162 257 -249 -181 0
252 -226 243 267 -140 -156 -162 -167 100 216 257 -266 -269 150 0
267 252 -156 -162 168 -242 257 243 -269 144 159 120 -249 -194 0
-382 -226 -261 -156 -255 -140 -154 243 162 250 0
256 -226 -156 267 250 -140 243 141 162 257 -154 -269 144 120 0
39 267 -255 -226 -156 -256 -140 -154 -146 243 -224 -249 0
-224 39 -154 267 250 -140 243 -146 141 162 -226 257 -269 -156 144 120 -249 -181 0
-156 144 257 -242 -269 159 120 -249 138 -254 122 0
-263 -245 -156 -141 162 168 242 -261 -192 159 111 -249 138 -254 0
-245 -263 -255 147 -195 -261 162 168 242 159 111 -249 138 -254 0
-17 -263 -192 141 367 -243 162 -167 242 -261 -156 159 -147 -249 138 -254 0
-245 -266 -156 162 -261 242 257 168 -269 159 111 150 -249 138 -254 0
-192 267 -156 -141 -261 162 168 242 -226 -263 159 111 -249 138 -254 0
-266 -252 -195 -269 -226 118 -255 -261 162 168 242 267 159 111 246 -249 138 -254 211 0
-255 252 111 250 -269 141 147 -266 -261 -226 267 168 242 -263 159 162 246 -249 138 -254 211 0
267 -266 -156 162 -261 242 257 168 -269 159 111 246 -249 138 -254 211 0
256 162 144 242 257 168 111 -269 159 -156 246 -249 138 -254 211 0
-245 -192 -141 -256 168 242 -263 -156 144 159 111 -249 138 -254 0
-245 -255 147 -17 -195 -256 168 242 -192 144 159 272 -249 138 -254 0
272 -245 144 111 162 168 242 257 -256 -269 261 159 -156 150 -48 -249 138 -254 0
-192 -226 267 -141 -146 39 -263 168 242 -256 -156 144 159 111 -249 138 -254 0
-17 -252 -195 267 245 -256 -167 242 144 -255 -137 159 -219 -249 264 205 -254 0
-17 -381 267 -195 147 242 144 -243 -137 159 -249 264 205 -254 0
245 -263 261 267 -256 162 168 242 257 -269 -156 144 159 111 150 -48 -249 138 -254 0
-256 261 162 168 242 257 111 -269 144 159 -156 150 -48 -249 138 -254 153 0
-245 -256 -219 -141 162 242 257 -261 144 159 -156 -249 -194 205 -254 -181 0
250 244 -17 -261 252 -263 162 100 242 -192 144 -137 -256 -219 -249 264 205 -331 0
-245 -261 147 141 144 162 168 242 257 -256 -269 159 111 120 -249 138 -254 -181 0
-17 -137 -261 367 162 -256 242 257 -167 144 -252 159 -249 319 264 205 -254 -181 0
-192 -256 -17 367 -147 -261 162 242 252 -156 144 159 -263 -249 138 -254 0
-245 -261 111 162 168 242 257 -256 -269 144 159 -156 120 -249 138 -254 -181 0
-192 -256 -141 -17 367 -261 162 242 252 -156 144 159 -263 -249 138 -254 0
-141 -256 162 168 257 144 -269 -156 159 111 120 -249 138 -254 122 0
-226 -252 147 -195 144 -261 162 168 242 257 -256 -269 159 111 150 -48 -249 138 -254 122 0
-256 367 -17 144 147 -195 -261 -263 252 100 242 257 162 -269 159 -226 150 -48 -249 138 -254 211 0
-263 115 144 -367 -224 141 252 118 -261 -226 162 100 257 -176 -269 159 -219 150 -48 -249 264 -331 211 0
-226 118 141 144 -263 -261 -256 252 168 242 257 162 -269 159 111 150 -48 -249 138 -254 211 0
-255 -256 -17 141 267 -261 367 162 242 257 144 159 -226 -249 138 -254 -181 0
-255 367 -195 -263 147 -17 168 242 159 -245 -249 138 -254 0
-156 -266 367 -269 242 257 168 -162 159 -17 -148 -149 150 -249 138 -254 211 0
367 -256 -17 141 147 168 242 257 144 -269 159 -245 120 -249 138 -254 0
-17 -137 -117 -256 -195 367 147 -167 242 257 -176 -269 144 -252 159 150 -48 -249 264 205 -172 211 0
252 367 -17 -256 -195 -263 147 100 242 257 -269 144 159 -117 150 -48 -249 138 -254 211 0
-245 -261 147 -154 367 -202 -156 -195 242 -255 159 -249 264 -194 205 -172 0
-154 256 -156 367 141 162 242 257 147 -269 144 159 150 -48 -249 138 -254 211 0
-256 141 -17 147 144 162 242 257 367 -269 159 -245 -249 264 -194 205 -172 -181 0
-256 141 144 -17 147 367 162 242 257 -269 -243 159 -117 150 -249 -194 205 -254 122 0
-117 -368 261 -269 -370 -140 147 141 162 257 243 120 211 0
243 -255 144 -256 -17 -168 242 257 367 -156 159 -261 -249 -194 205 -254 -181 0
111 -269 144 159 -156 246 -249 138 -254 122 0
39 -226 -141 -146 267 -257 269 -156 246 247 0
-263 -242 159 216 100 -257 269 252 -137 246 -249 247 0
263 -242 -141 168 144 -257 162 269 -156 159 246 -249 -194 247 0
-370 -407 420 419 -257 269 246 247 0
263 256 159 147 -226 141 162 243 168 261 -242 -257 39 269 144 -137 246 -249 247 0
267 -261 -146 162 -242 -257 269 -156 159 246 -249 -194 247 0
243 -242 -156 147 168 162 -257 269 263 144 159 246 -249 -194 247 0
-255 243 -156 -147 -257 -258 -140 246 247 0
243 -255 -258 324 -257 -182 -154 -156 -140 246 247 0
39 267 269 -146 -154 -257 -226 -156 246 247 0
269 -156 -257 -242 144 159 246 -249 138 247 0
121 -156 242 -141 -219 138 -254 247 0
263 243 261 147 162 256 168 141 242 -257 269 144 159 -219 138 -254 247 0
243 -255 162 269 141 242 -257 -261 159 111 138 -254 247 0
-261 -266 243 -372 147 162 168 -140 207 242 -257 269 159 111 138 -254 247 0
-201 -256 144 -257 242 269 111 138 -254 247 0
-156 -147 242 -257 121 -137 111 138 -254 247 0
-162 -156 -257 242 -258 -219 138 -254 247 0
144 159 -257 111 138 -254 247 0
-266 -263 39 -141 -375 252 -226 -146 147 162 -372 100 216 257 -258 -156 144 120 122 0
-182 256 261 252 -146 147 162 245 168 257 -141 -258 -156 144 120 247 0
39 252 269 -141 -261 -226 147 162 -372 168 -242 257 -266 -156 -137 159 -249 122 0
256 252 159 147 245 162 168 -242 257 -141 -156 269 144 -137 120 -249 247 0
261 256 -140 393 147 162 168 -242 257 269 144 159 120 -249 138 247 0
252 -137 269 243 162 -372 100 -242 257 -266 -261 159 -249 247 0
-256 244 159 -372 39 -226 147 252 168 -141 -242 257 269 -156 144 261 -137 120 -249 247 0
261 244 -256 -141 147 252 168 245 -242 257 269 -156 144 -137 159 120 -249 247 0
252 244 -256 147 162 -141 168 245 -242 257 269 -156 144 -137 159 120 -249 247 0
39 252 159 261 141 243 -226 147 -372 168 -256 -242 257 244 269 144 -137 120 -249 247 0
-256 252 159 261 141 147 245 168 244 -242 257 243 269 144 -137 120 -249 247 0
-224 -256 159 162 -261 -242 257 269 -372 -137 -249 122 0
-147 121 -372 -156 0
252 256 243 393 -140 -147 162 261 168 257 269 -156 144 150 247 0
256 252 159 -147 162 168 -242 257 243 -156 269 144 -137 150 -249 247 0
252 244 243 -147 -256 168 261 -242 257 269 -156 144 -137 159 120 -249 247 0
-266 -263 -372 252 39 -226 -146 -162 243 -268 -258 -156 120 247 0
-266 243 245 252 -146 -162 -372 168 257 -258 -156 120 247 0
-377 -266 -117 -263 243 -162 252 100 -268 269 -156 120 247 0
252 -266 -140 243 -146 -162 245 168 257 269 -156 120 247 0
-256 252 159 -267 -162 -372 168 244 -242 257 243 -156 269 144 -137 210 46 -249 247 0
-266 -255 159 -372 -121 245 147 162 -242 -268 243 269 144 -137 120 -249 247 0
-266 -370 -368 -255 -375 243 -140 -154 147 162 257 -156 144 120 0
-266 243 159 245 147 141 162 -242 257 -154 -156 269 144 -137 120 -249 247 0
-226 -137 -256 243 -156 39 147 141 162 269 -242 257 -154 -372 -224 159 150 -249 122 0
269 -156 257 -242 144 159 120 -249 138 247 0
256 -121 -245 -141 -372 367 147 162 168 242 257 -258 -156 144 159 -17 -249 138 -254 122 0
-266 147 243 393 -372 -121 -245 162 242 257 -258 159 150 -249 -194 205 -254 122 0
-146 -255 269 250 -372 -261 267 243 162 242 121 159 -219 138 -254 247 0
39 -266 -121 243 141 -226 -146 147 242 -268 -258 -137 120 138 -254 0
252 256 243 -195 -372 261 162 168 242 257 269 144 159 111 150 -249 138 -254 -152 0
-243 -266 141 372 -367 147 162 168 257 269 144 159 -219 138 -254 247 0
243 256 393 -140 -245 372 -367 147 162 168 257 269 144 159 -219 138 -254 247 0
372 -266 243 -140 245 -255 147 168 242 257 269 159 -219 138 -254 247 0
243 269 -121 39 141 -372 -256 147 168 242 257 -17 144 159 -226 138 -254 247 0
121 -372 -252 -256 -167 242 257 269 144 159 138 -254 247 0
115 269 111 144 252 243 121 -255 168 242 -221 -263 159 -372 -249 138 -254 0
-201 -256 367 -221 -372 121 243 242 257 -333 269 144 138 -254 247 0
-226 255 -17 144 367 141 121 114 147 162 168 242 257 -256 269 159 -372 138 -254 247 0
115 -256 -201 -367 252 121 -263 -192 168 257 269 -372 144 -219 138 -254 247 0
-255 256 -121 -372 367 141 162 168 242 257 269 144 159 -17 -249 138 -254 122 0
256 -121 -372 367 141 162 168 242 257 269 144 159 -17 150 -249 138 -254 122 0
-243 -266 -121 -372 -195 367 147 168 242 257 269 159 -17 -249 138 -254 0
-266 -372 367 -162 168 242 257 269 -156 159 -17 120 -249 138 -254 0
-266 147 -372 367 -121 141 162 242 257 -258 144 159 120 -249 138 -254 122 0
144 111 159 138 -254 247 0
-144 -141 39 -269 248 -226 -146 162 252 100 -242 -257 -263 -137 159 246 -249 0
-144 -141 -232 65 -155 245 263 -269 -146 147 162 168 -257 261 246 153 0
-144 -141 267 250 245 162 -257 -261 246 0
-412 -375 -141 -144 0
-141 -144 147 162 168 -242 -269 -257 159 246 -249 138 153 0
-232 245 159 -263 243 141 267 -155 147 162 252 100 216 -242 -269 -257 -137 246 -249 0
147 -242 159 141 -263 162 168 156 -269 -257 246 -249 138 0
65 245 159 263 156 243 141 261 -232 147 162 168 -242 -269 -257 -137 246 -249 122 0
-407 -226 -255 243 -140 -261 162 -242 -257 -137 159 246 -249 0
65 -232 159 -261 263 -155 243 -140 267 245 -146 209 162 168 -242 -269 -257 -137 246 -249 153 0
141 -242 159 156 147 168 162 -269 -257 246 -249 138 122 0
252 243 -144 -263 -140 -255 100 -257 -156 246 0
39 -226 -263 -140 -269 243 -144 -146 162 252 100 -242 -257 -156 -137 159 246 -249 0
245 243 261 -272 393 -140 141 -269 -156 147 162 168 -257 -144 246 122 0
-144 -242 147 168 162 -269 -257 159 246 -249 138 122 0
-141 -144 269 39 -226 -146 -257 267 246 247 0
261 259 156 243 141 263 269 245 147 162 168 -242 -257 -137 159 246 -249 247 0
39 269 159 267 -261 -146 162 -242 -257 -226 -137 246 -249 247 0
141 269 156 147 162 168 -242 -257 159 246 -249 138 247 0
-144 39 269 -156 -226 -146 -257 267 246 247 0
243 -140 -144 -156 -255 -257 -258 246 247 0
39 40 -147 -144 0
-255 252 -263 -140 -147 243 100 -257 -144 246 0
243 248 -147 -269 -144 162 252 100 -242 -257 -263 -137 159 246 -249 0
-232 65 -147 -259 -144 243 -255 -333 -242 -257 119 -137 159 246 -249 0
-144 -232 -269 -147 243 263 65 162 168 -242 -257 261 -137 159 246 -249 122 0
243 -255 -147 -144 162 -242 -257 -261 -137 159 246 -249 0
-144 -261 -147 -232 -155 -259 250 162 -257 119 246 0
243 248 -147 -269 -144 162 252 168 -242 -257 65 -137 159 246 -249 122 0
-144 -255 243 -140 -147 -257 -258 246 247 0
-263 -162 243 -140 -255 252 100 -257 -144 246 0
-162 -144 39 -226 -146 -263 252 100 -257 267 246 0
-263 -162 156 -259 252 -242 -257 -144 159 246 -249 138 0
-162 -144 -156 0
-263 -162 -269 252 100 -242 -257 -144 159 246 -249 138 0
243 248 -259 -155 -144 -255 -257 -162 246 0
245 248 -255 -269 -155 -144 -140 263 -162 168 -257 243 246 153 0
-162 -144 168 -242 -257 -269 159 246 -249 138 122 0
-166 -232 -168 -144 -255 243 -140 -259 -257 119 246 0
-144 -255 246 65 -232 -259 243 -155 -168 -257 -140 0
-144 -255 243 245 267 -168 -257 -140 246 0
-142 -232 -259 -144 -255 243 -140 -168 -257 119 246 0
-144 -255 243 -232 -269 65 245 -155 -168 -257 -140 246 205 0
-232 255 -144 -259 245 -269 250 -155 -146 -168 -257 119 246 0
65 -232 -144 -259 245 -269 -146 -155 255 -168 -257 250 246 0
-232 65 -144 -269 245 -140 250 -155 -146 -168 -257 243 246 205 0
243 -255 -144 -140 -168 -257 -258 246 247 0
-144 255 39 259 269 -226 -168 -242 -257 371 -137 159 246 -249 247 0
-144 159 -257 -242 246 -249 138 247 0
-141 -144 -269 367 -371 168 242 -257 -248 159 -148 -149 -249 138 -254 0
-245 259 147 -119 156 367 -269 162 168 242 -257 159 -249 138 -254 153 0
-141 159 168 -257 111 138 -254 247 0
-232 -226 -195 -259 147 119 156 267 -255 242 -257 159 111 246 -249 138 -254 0
-158 -52 -243 -259 -155 -137 -232 -140 242 371 268 -180 -17 -219 246 -249 319 264 205 -254 0
-227 -371 -263 -259 248 156 252 168 242 -257 159 111 246 -249 138 -254 0
-232 -385 -137 -261 -227 250 162 242 -371 268 -336 111 138 -254 0
-255 250 -195 -259 119 162 -269 147 -243 156 168 242 -257 159 111 246 -249 138 -254 0
65 -232 -119 -259 -155 242 -257 -137 111 138 -254 0
-243 -255 156 162 -269 -259 -144 250 168 242 -257 -195 159 111 246 -249 138 -254 0
39 -137 -226 -146 147 259 156 -269 371 -158 252 -140 168 242 -257 -243 -17 -219 246 -249 319 264 205 -254 153 0
-243 -227 141 259 156 162 -269 147 252 267 168 242 -257 159 111 246 -249 138 -254 153 0
-227 -255 259 156 162 -269 147 -243 141 168 242 -257 159 111 246 -249 138 -254 153 0
-243 -255 -144 -269 168 242 -257 141 159 111 246 -249 138 -254 153 0
385 -155 -259 64 111 242 -257 -137 269 138 -254 247 0
-243 -195 259 -367 269 147 -377 159 -219 138 -254 247 0
121 -219 -119 -257 242 138 -254 247 0
-17 -227 242 -336 -144 -137 -162 -219 246 319 264 205 -254 0
-243 -195 -259 156 269 -257 159 111 138 -254 247 0
-255 243 -259 156 -17 371 -140 242 -257 -137 159 -221 -219 246 -249 319 264 205 -254 0
-333 -155 -17 -371 367 -259 -221 243 -231 242 -336 268 -137 159 -227 111 -249 319 264 205 -254 0
-17 -333 119 64 -259 -371 -155 -221 242 243 268 -336 -137 159 111 -148 -249 319 264 205 -254 0
-221 243 -119 242 -257 -137 -219 264 205 -172 0
-17 -255 -259 243 156 242 -257 -140 -137 159 111 246 -249 319 264 205 -254 0
113 -137 243 -140 -156 242 -144 -333 -219 264 205 -331 0
141 367 -17 -269 259 156 -371 -227 243 162 252 -255 168 242 -257 159 147 246 -249 138 -254 153 0
-255 243 -269 141 168 242 -257 -144 159 111 246 -249 138 -254 153 0
-255 159 168 -257 111 138 -254 247 0
267 159 147 367 156 -263 168 242 -259 -257 111 246 -249 138 -254 0
255 367 147 162 267 156 258 -259 393 207 168 242 -257 159 111 246 -249 138 -254 122 0
-261 159 -263 162 -227 248 156 367 168 242 -259 -257 111 246 -249 138 -254 0
267 -263 371 147 156 -259 168 242 -257 159 111 246 -249 138 -254 0
255 267 162 147 -367 258 156 -259 371 393 207 168 242 -257 159 111 246 -249 138 -254 122 0
255 393 162 -367 147 156 -259 -269 371 207 168 242 -257 159 111 246 -249 138 -254 122 0
255 -385 258 162 147 156 267 393 207 168 242 -257 159 111 246 -249 138 -254 122 0
255 393 156 -269 -144 207 168 242 -259 -257 159 111 246 -249 138 -254 122 0
-248 121 367 -227 269 -155 242 -336 268 159 -17 138 -254 247 0
-226 250 147 255 -372 -272 -367 162 269 242 -257 -219 138 -254 247 0
255 393 258 -144 367 -245 -119 207 168 242 -257 -156 159 246 -249 138 -254 122 0
-261 367 -252 147 162 -17 168 242 -257 159 -225 246 -249 138 -254 0
259 255 -227 367 -263 156 -269 141 168 242 -257 -144 159 111 246 -249 138 -254 0
255 259 162 -252 367 -119 -269 141 -167 242 -257 159 -249 138 -254 0
259 255 367 156 -269 141 168 242 -257 -144 159 111 246 -249 138 -254 153 0
-263 -192 -219 -261 267 162 147 -367 371 242 -257 159 168 246 -249 138 -254 0
-227 -167 -252 -371 -367 -336 268 159 -219 -249 264 -331 0
255 -219 147 -269 259 156 -367 141 168 242 162 -257 159 246 -249 138 -254 153 0
-225 -261 -367 -372 162 147 269 242 -257 138 -254 247 0
-144 159 -168 242 -259 -269 -257 111 246 -249 138 -254 0
159 111 -257 138 -254 247 0
-232 252 -144 272 -192 -146 -141 267 -155 156 -226 -259 100 216 39 0
252 -137 39 -226 -146 162 -269 -232 156 -259 -141 168 -242 257 -144 267 159 150 -48 -249 153 0
-267 -242 156 162 -269 147 -259 168 257 159 120 -249 138 153 0
-232 -226 272 -221 -255 -140 252 -192 156 267 -259 243 168 0
-373 -137 252 -231 243 -333 -263 -259 -192 100 -242 -221 159 -249 0
-232 -137 159 252 -140 243 272 -192 -259 100 156 -242 -255 -249 0
-232 -137 159 -385 -226 243 -221 -242 -333 267 -249 0
-255 -242 156 -259 168 -269 257 -144 159 120 -249 138 153 0
-232 -141 -259 267 209 -146 245 -258 324 -155 -182 -144 247 0
-182 -267 252 147 -232 -258 -141 -155 156 -259 261 168 257 -144 120 247 0
-385 -232 159 162 269 -242 -261 -137 -249 247 0
252 -137 147 162 269 248 156 -259 -141 168 -242 257 -144 245 159 120 -249 247 0
-232 -385 243 -147 -258 -182 -144 -255 247 0
-255 -232 -144 -147 -258 324 -182 -155 -259 -242 113 159 -249 138 247 0
-226 -137 243 -269 261 -255 -156 168 -242 257 -144 252 159 150 -48 -249 153 0
-221 -226 -261 -156 -144 267 -140 250 -255 243 0
-226 -137 243 -269 -255 -156 168 -242 257 -144 252 159 120 -249 153 0
-182 -144 -258 -156 -140 267 -146 245 243 -255 247 0
243 252 269 261 -140 -156 -255 -267 168 257 -144 120 247 0
-263 -242 156 -269 255 162 -259 168 257 159 150 -48 -249 138 0
-385 252 -232 -144 267 -162 -192 -263 100 -226 0
272 252 211 156 -232 -269 255 -259 -162 100 216 -242 257 -144 159 150 -48 -249 -194 0
-242 -144 156 255 272 -259 168 257 -269 159 150 -48 -249 138 211 0
255 -242 -259 168 -269 257 -144 159 120 -249 138 211 0
-232 -410 267 -231 420 -226 -192 -155 -263 269 252 100 216 -242 138 247 0
147 -242 156 269 255 162 -259 168 257 159 120 -249 138 247 0
-232 -385 -144 -192 -147 -258 -182 -263 100 252 247 0
-144 -147 -232 156 272 -258 -182 -259 -192 168 -242 252 -137 159 -249 247 0
272 -232 -144 -155 156 -162 -258 -337 -259 252 168 -192 247 0
255 -242 156 -259 168 257 -144 159 120 -249 138 247 0
39 252 -226 -372 -144 -146 -156 -258 -263 100 216 267 0
-182 -144 252 -146 245 267 -258 -156 100 216 -263 247 0
252 -137 -263 269 -156 255 100 216 -242 257 -144 245 159 150 -249 247 0
-226 -137 -372 39 -144 -156 269 -242 -261 267 159 -249 122 0
-141 252 -269 259 -263 168 -242 257 -144 159 120 -249 -194 211 0
252 -137 -226 162 -263 259 -269 168 -242 257 267 159 120 -249 0
-255 252 147 243 -263 259 -269 168 -242 257 -144 159 120 -249 -194 211 0
-255 -242 259 168 -269 257 -144 159 120 -249 138 153 0
-144 -141 -263 39 -372 252 -146 -258 -226 100 216 267 0
-144 -141 -263 252 -146 269 245 100 216 267 247 0
252 -137 -141 -146 269 259 -263 100 216 -242 257 -144 245 159 150 -249 247 0
252 -137 147 269 259 -141 168 -242 257 -144 245 159 150 -249 247 0
-255 243 372 252 -140 269 -263 100 216 247 0
252 -137 159 243 -140 269 100 216 -242 -255 -263 -249 247 0
-255 243 267 162 -140 -261 269 -146 -242 159 -249 -194 247 0
269 -255 147 259 168 -242 257 -144 159 150 -249 138 247 0
-255 -242 259 168 257 -144 159 120 -249 138 247 0
39 -146 267 -162 -263 -372 -258 -337 252 -226 100 216 -144 0
-337 267 -146 -258 -144 -261 -263 168 -242 252 159 -249 -194 247 0
-255 -242 -259 -168 -269 257 -144 159 150 -249 138 211 0
-269 -168 -259 -242 257 -144 159 150 -48 -249 138 211 0
-232 243 -259 -255 -258 -140 -155 -168 -144 247 0
-232 245 324 -258 -259 -144 267 -155 -146 -168 -337 247 0
-168 -242 -259 257 -144 159 150 -48 -249 138 247 0
-226 243 259 -269 -140 250 -168 257 -144 120 -249 211 0
-255 267 245 -144 -258 -337 324 -140 243 -168 -146 247 0
243 -137 259 269 -255 -168 -242 257 -144 245 159 150 -249 247 0
-242 -144 257 159 246 -249 138 247 0
-141 -144 272 -192 168 -259 242 -245 159 111 -249 138 -254 0
261 -141 -269 168 -259 242 257 -144 159 111 150 -48 -249 138 -254 153 0
-141 -144 -261 -259 242 -245 159 111 -249 -194 205 -254 0
-117 -370 267 39 -261 -146 156 367 162 -259 242 159 111 -249 138 -254 0
-252 -141 -261 168 -259 242 -144 159 111 -249 138 -254 0
-141 -144 168 -259 242 257 -269 159 111 120 -249 138 -254 153 0
-232 159 -263 -155 64 147 -245 -255 -195 -192 65 168 -259 242 111 -249 138 -254 0
-146 -232 -140 261 243 64 -155 147 245 -333 113 141 -269 -259 242 257 -137 111 120 138 -254 211 0
-385 -232 -243 156 267 147 -195 242 -137 159 -17 111 -249 319 264 205 -254 0
-226 242 -373 -263 252 65 -155 168 -259 -382 -219 138 -254 0
261 -269 147 272 156 -255 141 168 -259 242 257 159 111 120 -249 138 -254 211 0
261 -144 272 147 -255 141 168 -259 242 257 -269 159 111 120 -249 138 -254 211 0
-255 -144 -147 -195 168 -259 242 -17 -137 159 -252 111 -249 319 264 205 -254 0
-245 -255 156 147 162 -195 -261 267 -259 242 159 111 -249 138 -254 0
-226 -243 141 39 156 -146 162 -261 267 -259 242 159 111 -249 138 -254 0
-255 -269 162 -261 147 156 141 168 -259 242 257 159 111 120 -249 138 -254 153 0
-261 -245 147 -202 -144 -156 -195 242 -255 159 -219 -249 264 -194 205 -331 0
-370 -225 -261 -156 -202 -375 -144 0
-243 -370 367 -156 147 162 -261 141 -269 168 242 257 -144 159 -17 120 -249 138 -254 153 0
-245 -269 147 156 162 243 -261 141 272 168 -259 242 257 159 111 150 -48 -249 138 -254 0
-370 -269 -231 367 156 147 -261 162 -368 243 -140 -252 168 -259 242 257 159 111 120 -249 138 -254 211 0
-368 -269 156 367 147 267 162 -226 -261 243 -140 -263 168 -259 242 257 159 111 120 -249 138 -254 211 0
-226 159 -367 252 156 -263 -261 162 267 -232 168 -259 242 111 -249 138 -254 0
267 -269 147 156 162 -368 243 -261 141 272 168 -259 242 257 159 111 120 -249 138 -254 211 0
-261 -192 -156 -263 147 162 -17 367 168 242 -144 159 -245 -249 138 -254 0
-144 -252 -261 162 168 -259 242 -147 159 111 -249 138 -254 0
-373 -377 -231 -144 -263 -259 -147 0
255 -144 162 141 168 -259 242 257 -269 159 111 120 -249 138 -254 211 0
-252 267 -162 168 -259 242 -144 159 111 -249 138 -254 0
242 -144 168 -259 257 -269 159 111 120 -249 138 -254 153 0
267 245 -367 -255 -195 -146 269 159 -219 138 -254 247 0
-245 -255 -367 -195 156 147 269 -259 159 -219 138 -254 247 0
-232 -385 -367 -192 -263 252 121 269 100 -219 264 -331 247 0
-263 121 -243 -192 252 -367 -195 156 269 100 -259 159 -219 -249 264 -331 247 0
-267 261 121 252 -367 -255 -195 156 147 269 168 -259 257 159 -219 120 -249 264 -331 247 0
-255 -263 -367 -261 141 156 162 168 -259 242 159 111 -249 138 -254 0
-243 -261 -367 141 156 162 269 -259 159 -219 138 -254 247 0
267 -252 269 123 156 147 -372 168 242 159 -249 138 -254 0
261 255 123 367 -372 141 156 147 269 168 242 257 159 111 120 -249 138 -254 0
-245 -155 -372 367 -261 147 162 269 -259 242 159 -249 138 -254 122 0
-370 267 -372 39 -261 367 -146 162 269 242 159 -249 138 -254 0
-192 252 -245 121 -263 -367 -155 -146 269 100 216 -259 159 -219 -249 264 -331 247 0
255 141 -367 261 156 147 269 168 -259 257 159 -219 138 -254 247 0
267 -261 -367 156 147 162 269 -259 159 -219 138 -254 247 0
252 -367 250 -261 -372 -263 -202 269 100 -219 138 -254 -152 0
-255 -121 -372 367 141 147 162 269 168 242 257 159 -17 120 -249 138 -254 122 0
255 -258 -372 367 261 147 -156 168 242 257 -144 159 -17 120 -249 138 -254 0
-255 -245 -168 -259 242 -17 -137 159 -144 111 -249 319 264 205 -254 0
-370 -137 39 -269 -168 -259 242 257 -144 261 159 -17 111 120 -249 319 264 205 -254 211 0
-261 -245 -168 -259 242 -144 159 111 -249 -194 205 -254 0
-269 -168 -259 242 257 -144 159 111 120 -249 138 -254 211 0
159 111 -259 138 -254 247 0
-261 -192 -263 147 -17 -141 162 367 168 242 -144 159 -225 -249 138 -254 0
-370 367 113 -333 -195 -225 -252 -167 242 -137 159 -249 264 205 -172 0
-261 -192 141 -263 147 -17 -255 162 367 168 242 159 267 -249 138 -254 0
-263 -269 147 -261 162 367 168 259 242 257 -144 159 -17 150 -48 -249 138 -254 211 0
-261 -167 -144 -252 162 367 -255 242 -147 159 -249 264 138 -172 0
-269 259 367 168 162 242 257 -144 159 -17 120 -249 138 -254 153 0
261 -372 147 -258 162 -141 367 168 259 242 257 -144 159 -17 150 -249 138 -254 0
147 -372 269 162 -141 367 168 259 242 257 -144 159 -17 150 -249 138 -254 122 0
261 -372 141 269 367 168 259 242 257 159 -17 150 -48 -249 138 -254 0
-201 121 -372 -263 269 162 252 -261 242 367 -17 -249 138 -254 0
-255 -372 -261 141 147 -235 162 269 367 168 259 242 257 159 -17 150 -249 138 -254 0
269 -372 162 147 367 168 259 242 257 -144 159 -17 150 -48 -249 138 -254 122 0
-372 259 367 168 162 242 257 -144 159 -17 120 -249 138 -254 122 0
-269 -162 367 168 259 242 257 -144 159 -17 150 -48 -249 138 -254 153 0
-255 -121 269 -195 147 -372 367 168 259 242 257 159 -17 150 -249 138 -254 0
259 257 168 367 -144 159 -17 138 -254 247 0
-226 118 -255 -252 267 -261 162 141 147 -367 168 159 -219 -249 138 -254 0
162 168 141 147 -367 -269 259 242 257 159 111 120 -249 138 -254 153 0
261 -255 269 -195 162 147 -367 168 259 257 159 -219 138 -254 247 0
-245 -263 -261 269 -202 147 -367 168 159 -219 138 -254 247 0
267 -252 -261 269 -202 147 -367 168 159 138 -254 247 0
-255 -245 -261 367 -168 242 -144 159 -249 264 -194 205 -172 0
-269 -168 367 259 242 257 -144 159 120 -249 138 -254 0
-121 -372 -258 -255 147 367 141 162 259 242 257 159 150 -249 138 -254 122 0
159 111 138 -254 247 0
-232 377 119 -263 252 -155 -141 -257 -259 100 -159 246 0
-245 248 252 -263 -155 -141 -257 -259 162 100 -159 246 0
-382 -226 119 -232 -155 -141 -257 -259 -159 246 0
-252 245 267 -141 -242 -257 -259 168 -159 246 138 0
-263 -382 -226 252 119 -141 -242 -257 -259 168 -159 246 138 0
-232 -385 -370 -227 267 -263 252 -257 100 246 0
-370 267 -371 419 -248 -155 -242 268 -257 -148 -149 138 0
-263 245 267 -141 -242 -257 -259 168 -159 246 138 0
-381 -141 -176 -382 -226 -242 -257 -259 -159 246 138 0
-252 -256 -141 -242 -257 -259 168 -159 246 -249 138 0
-381 272 252 248 -141 -242 -257 -259 100 -159 246 -194 0
261 -141 -242 -257 -269 -259 162 168 -159 246 -249 138 153 0
-261 -245 -141 -242 -257 -259 162 -159 246 138 0
245 248 -146 267 -155 -141 -257 -259 -159 246 0
-248 -250 156 -242 -202 138 0
-382 -226 250 -261 -141 -257 162 -159 246 0
-261 267 -141 -242 -257 -259 162 -159 246 138 0
375 -267 -252 -232 -261 -141 -242 -269 -259 162 168 -159 246 -194 211 0
-263 248 252 -261 -141 -242 -257 -259 162 100 -159 246 138 0
-232 375 -385 -256 144 156 -242 -257 162 246 -249 138 0
248 -141 -242 -257 -269 -259 162 168 -159 246 -249 138 153 0
-263 252 123 250 -261 156 -242 -257 -259 162 246 138 0
-141 -242 -257 -269 -259 162 367 168 -159 -17 246 -249 138 -254 153 0
-231 -232 261 -224 -147 243 -385 -140 141 -257 -269 162 -159 246 -249 0
-232 -167 -137 162 261 243 -155 123 -140 141 -252 -242 -257 -269 -259 -147 -159 246 -249 0
248 -167 -137 162 243 -155 261 -140 141 -252 -242 -257 -269 -259 -147 -159 246 -249 0
248 -385 -252 267 147 156 -242 -257 -259 168 246 138 0
-167 -227 -419 -252 -137 -242 0
-373 -167 -231 419 267 -52 -252 -226 -232 -137 -242 -257 -259 246 0
-373 -167 245 -146 209 144 -252 248 267 -155 156 261 -137 -242 -257 -269 -259 162 246 0
-252 248 267 156 261 -140 141 -242 -257 -269 -259 162 168 -159 246 -249 138 0
-232 -140 147 -385 252 144 267 156 261 -245 141 -242 -257 -269 -259 162 168 246 -249 138 153 0
-371 -144 -227 -336 -159 0
248 252 -119 -155 243 156 261 393 207 -257 258 -259 162 100 122 0
-385 248 147 261 -245 267 156 -227 -140 141 -242 -257 -269 -259 162 168 -159 246 -249 138 153 0
-266 261 144 -140 243 371 252 141 -257 -269 162 168 246 153 0
-232 -155 -245 147 144 243 261 252 371 -140 141 -242 -257 -269 -259 162 168 246 -194 153 0
252 -140 147 267 144 -263 156 261 141 -242 -257 -269 -259 162 168 246 -249 138 0
-373 65 144 147 -245 252 -227 -232 267 156 261 393 141 -242 -257 -269 -259 162 168 246 -249 138 122 0
-245 248 147 267 156 261 393 141 -242 -257 -269 -259 162 168 -159 246 -249 138 122 0
252 248 -147 -385 -263 156 261 -140 141 -242 -257 -269 -259 162 100 -159 246 -249 138 0
-373 252 -147 371 -263 156 -257 -259 100 -159 246 0
-224 -232 -155 -256 371 -257 -259 246 -249 0
-232 -155 -226 267 -248 -242 -257 246 138 0
-370 267 100 252 -248 371 -155 -242 -257 -263 246 138 0
39 -140 -371 261 252 147 -226 156 -263 267 141 -242 -257 -269 -259 162 168 -159 246 -249 138 0
-221 -248 -407 263 261 144 -371 -226 243 156 -333 -242 -257 -269 162 168 -148 -149 -249 138 153 0
-248 393 147 156 261 267 141 -242 -257 -269 -259 162 168 -159 246 -249 138 122 0
393 261 -248 156 371 144 141 -242 -257 -269 162 168 246 -249 138 122 0
-255 -155 -248 243 252 -371 -147 -263 -140 -242 268 -257 100 -159 -148 138 0
-263 252 162 -147 -371 156 261 -140 141 -242 268 -257 -269 -248 100 -159 -148 -149 -249 138 0
248 -140 -255 156 -263 -195 -242 -257 -259 168 246 138 0
261 141 168 156 -242 -257 393 -259 162 -269 -159 246 -249 138 -254 122 0
243 261 371 -226 -224 -252 -137 -167 147 -140 141 267 -242 -257 -269 162 246 -249 0
261 267 -156 -252 -140 141 -242 -257 -269 162 168 -159 246 -249 138 0
-239 -377 -156 -159 0
267 -140 162 261 -156 371 -263 141 -242 -257 -269 252 168 -159 246 138 153 0
261 267 162 -156 371 393 141 -242 -257 -269 252 168 -159 246 138 -254 122 0
-227 -371 -156 -336 268 -159 0
252 -140 168 261 267 -371 147 144 -263 141 -242 -257 -119 162 -269 -148 -149 -249 138 0
267 261 -156 393 141 -242 -257 -269 162 168 -159 246 -249 138 -254 122 0
-176 -256 -252 -255 -156 141 -242 -257 367 168 -159 246 -249 138 -254 0
-256 -255 -263 371 252 144 -140 -195 -242 -257 168 246 138 -254 0
261 -242 168 -257 141 -259 162 367 -269 -159 246 -249 138 -254 122 0
65 -167 371 -252 -232 250 -155 -261 -137 -242 -257 -259 162 246 0
267 -242 -261 -252 156 147 -257 -259 162 168 246 138 0
-227 -371 -147 -336 268 -159 0
267 -252 156 -261 -242 -257 -259 162 168 -159 246 138 0
-263 -140 371 243 156 -261 252 -242 -257 -269 -259 162 100 246 138 -254 0
267 -140 371 -255 156 147 -261 141 -242 -257 -259 162 246 138 0
248 -155 144 -146 209 371 -256 267 -261 -242 -257 -259 162 246 -249 -194 0
-256 -261 -146 209 144 267 156 371 -242 -257 -259 162 246 -249 138 0
-123 267 147 371 -261 -242 -257 -259 162 246 -194 0
393 141 147 371 -269 156 263 267 -242 -257 -261 -259 162 -159 246 -249 138 122 0
-255 -261 243 371 156 -147 -140 -242 -257 -259 -202 -159 246 138 0
248 -155 -147 371 -256 -261 -242 -257 -259 162 -159 246 -249 -194 0
393 141 371 -269 156 252 267 -242 -257 -261 -259 162 100 -159 246 -249 138 -254 122 0
267 -140 -243 147 156 -371 -261 141 -242 268 -257 -259 162 -148 138 0
248 -140 147 -371 -255 156 -261 267 141 -242 -257 -259 162 246 138 0
272 252 -192 156 -261 -242 -257 -259 162 246 138 -254 0
65 -381 -256 144 -176 250 -245 147 -371 156 -261 -242 268 -257 -259 162 -219 -148 138 0
-336 -232 -202 -227 -225 -261 -235 -371 -226 -231 268 -259 -375 0
248 245 -225 -261 -155 -371 -146 250 267 268 -257 -259 162 -148 0
-381 -261 -256 -176 248 147 250 -371 267 156 -225 -242 268 -257 -259 162 -159 -219 -148 138 0
393 141 147 -269 156 252 267 -242 -257 -261 -259 162 100 -159 -219 246 -249 138 -254 122 0
248 375 252 144 -119 156 393 141 -242 -257 -269 -259 162 100 246 -249 138 122 0
-261 -242 168 -252 156 -257 -259 162 371 246 138 0
-255 141 248 -140 371 -261 162 156 -242 -257 -259 246 138 0
-267 -242 371 141 -261 162 156 -269 -159 168 -257 -259 246 138 -254 122 0
-381 -235 144 -252 -261 162 156 168 -242 -259 138 0
-252 -242 -140 -371 -267 141 -261 162 156 -269 -159 168 -257 -259 246 -249 138 0
248 252 -255 144 250 -371 -261 -267 141 -269 162 156 168 -242 -257 -259 246 -249 138 -254 122 0
-232 -155 250 -144 -235 162 -371 -159 -257 -259 -148 0
255 252 393 -261 -267 -269 162 156 -242 -257 -259 246 138 -254 122 0
162 -242 156 -269 -159 168 -257 -259 246 -249 138 -254 122 0
-372 -141 121 -337 -159 0
-141 371 269 162 156 168 -159 -242 -257 -259 246 138 247 0
-370 267 -248 -226 39 -371 -146 269 -155 -242 268 -257 -148 -149 138 247 0
-371 -141 -227 -159 -336 0
-141 269 162 156 168 -159 -242 -257 -259 246 -249 138 247 0
267 -248 269 147 -372 371 156 -242 -257 246 138 0
248 -155 -267 123 -372 -140 141 371 269 162 261 -159 -242 -257 -259 246 -249 138 0
269 371 -140 162 156 168 -159 -242 -257 -259 246 -249 138 247 0
-232 121 147 267 -252 -231 269 168 -242 -257 -259 246 -194 247 0
248 -155 147 267 -371 -140 269 -243 -242 -257 -259 246 138 247 0
-255 248 243 -146 267 -371 -140 269 156 -242 -257 -259 246 -194 247 0
-381 -245 144 -227 147 121 -371 -231 269 156 -242 -336 268 -259 138 247 0
248 -155 -119 121 -182 -257 -259 247 0
267 -248 147 -371 269 156 -242 268 -257 -148 -149 138 247 0
267 -261 147 -371 -372 269 162 156 -242 -257 -259 246 138 247 0
372 -261 269 -202 156 -242 -257 -259 246 138 247 0
267 269 -140 162 156 168 -159 -242 -257 -259 246 -249 138 247 0
261 -232 -372 -267 -227 -52 -371 -140 -231 269 168 -242 -257 -259 246 138 247 0
-373 -140 243 -368 -227 -231 -371 -255 268 -257 -259 -148 0
248 261 -267 -371 -140 141 269 156 168 -242 -257 -259 246 138 247 0
-267 -248 -227 261 372 -371 -182 324 -258 162 156 168 -159 -242 -257 246 -249 138 247 0
261 269 -140 162 156 168 -159 -242 -257 -259 246 -249 138 247 0
123 385 -162 -155 -159 0
248 267 371 -269 393 -162 156 168 -159 -242 -257 -259 246 138 122 0
267 -242 371 393 -269 156 168 -159 -162 -257 -259 246 -249 138 122 0
-243 248 -267 371 -269 -195 144 156 168 -242 -257 -259 246 -249 138 -254 153 0
-255 -242 -267 371 -248 -140 141 144 156 -269 168 -257 246 138 153 0
-227 -371 -162 -159 -336 0
248 -385 267 252 -119 -371 -269 393 141 144 147 156 100 -242 -257 -259 -148 -149 -249 138 122 0
267 -242 -385 -371 -119 393 141 144 147 156 -269 168 -257 -259 -148 -149 -249 138 122 0
248 -385 -267 -243 -269 -195 144 156 168 -242 -257 -259 246 -249 138 -254 153 0
248 -242 -119 -371 -385 141 144 147 156 -269 168 -257 -259 246 -249 138 -254 122 0
113 252 100 243 -119 -263 -140 -257 0
-255 -242 -267 -371 -248 -140 -269 156 168 -159 -162 -257 -148 -149 -249 138 153 0
-162 -242 -269 168 -159 156 -257 -259 246 -249 138 -254 122 0
269 371 123 -140 -162 156 168 -159 -242 -257 246 138 247 0
156 -242 168 -257 -259 138 -254 247 0
-243 267 -261 371 -140 -156 -159 -242 -257 246 138 0
-255 -261 -252 243 267 -368 -140 -156 168 -159 -242 -257 246 -194 0
-255 250 243 -261 371 -140 -156 -159 -257 246 0
-255 243 267 -261 371 -140 -156 -159 -242 -257 246 -194 0
267 -156 -261 -252 371 168 -159 -242 -257 246 -194 0
-263 252 267 -261 371 -156 100 -159 -242 -257 246 -194 0
-256 -261 -245 371 144 162 147 -242 -257 246 -194 0
267 -261 -269 371 393 -156 168 -159 -242 -257 246 -249 138 122 0
-243 -242 -267 -269 371 -261 141 162 -156 168 144 -257 246 138 -254 153 0
-261 -156 -267 243 -269 -252 -140 371 168 -159 -242 -257 246 -194 0
-255 243 -267 -261 -269 371 -140 -156 168 -159 -242 -257 246 -194 153 0
-156 -242 371 -269 -159 168 -257 -259 246 -249 138 -254 122 0
267 269 -121 371 -140 144 141 162 147 -156 168 -242 -257 246 138 247 0
-243 -267 -258 -121 -372 371 144 141 162 147 168 -242 -257 246 138 -254 0
255 -180 -267 269 -252 -372 371 144 141 162 147 -121 168 -242 246 -194 122 0
-263 252 -258 -121 -372 -257 246 0
-382 -252 375 162 147 168 -242 -194 0
375 -382 -140 -243 141 162 147 -242 138 0
-387 113 -382 243 -119 -140 162 147 -242 -257 -194 0
-382 250 100 252 255 -269 -119 -371 393 -146 144 141 162 375 -242 -257 -148 -149 -249 -194 122 0
267 375 -269 -119 -371 393 144 141 162 147 168 -242 -257 -148 -149 -249 138 122 0
-243 -261 -267 -269 -119 -371 144 141 162 168 -242 -257 -148 -149 -249 138 -254 153 0
375 -242 -267 243 -252 -119 -371 -140 144 141 162 147 -269 168 -257 -148 -149 -249 -194 0
-387 113 243 -267 252 -269 -119 -371 -140 144 162 168 -242 -257 -148 -149 -249 -194 153 0
-269 -242 -371 144 141 162 147 168 -159 -119 -257 -259 246 -249 138 -254 122 0
267 372 269 -119 -371 -140 144 141 162 147 168 -242 -257 246 -249 138 247 0
-243 372 269 -119 -371 144 141 162 147 168 -242 -257 138 -254 247 0
255 -267 -252 372 269 -119 -371 144 141 162 147 168 -242 -257 246 -249 -194 247 0
168 -242 -257 -259 138 -254 247 0
-243 267 371 -140 -168 -159 -242 -257 -259 246 138 0
-255 -368 243 267 -140 -168 -159 -242 -257 -259 246 138 0
-261 -375 267 371 -168 -159 -242 -257 -259 246 138 0
-224 -256 261 243 -269 371 -140 147 156 141 162 -242 -257 -259 246 -249 138 0
267 -140 371 -269 -168 -159 -242 -257 -259 246 -249 138 0
-243 -242 -269 371 -267 144 147 156 141 162 208 -257 -259 246 -249 138 -254 0
243 261 -267 -269 371 -140 -168 -159 -242 -257 -259 246 138 0
-255 -261 243 371 -140 -168 -159 -242 -257 -259 246 138 0
-176 -256 -375 -261 371 -168 -159 -242 -257 -259 246 138 0
-269 -168 371 -159 -242 -257 -259 246 -249 138 -254 0
115 -242 371 -248 156 144 246 -249 138 0
-385 368 -242 243 147 156 -382 138 0
115 -385 -382 -242 147 156 144 -249 138 0
375 250 -382 -385 147 156 162 -242 138 0
267 -140 -269 -371 -168 -159 -242 -257 -259 246 -249 138 0
-267 -242 -269 -385 -243 -371 144 147 156 141 162 -119 -257 -148 -149 -249 138 -254 0
243 -140 261 -269 -385 -371 -267 -168 -159 -242 -257 246 138 0
-235 -385 243 -119 113 -140 156 162 367 -257 138 -254 0
-269 -242 -168 -159 -371 -257 -259 246 -249 138 -254 0
-242 -257 -259 138 -254 247 0
147 -111 -248 162 168 156 -269 159 -257 246 -249 -254 0
-267 263 144 -248 156 168 -269 -367 371 159 -137 246 -249 -254 153 0
-248 -111 156 168 -269 147 159 -137 -257 246 -249 -254 122 0
144 -111 -248 162 168 156 -269 159 -257 246 -249 -254 153 0
-147 -111 -248 162 168 156 258 159 -257 246 -249 -254 122 0
-245 208 144 162 147 168 -269 -111 159 -257 246 -249 -254 153 0
208 261 -267 144 162 147 168 -269 -111 159 -257 246 -249 -254 0
-141 147 162 -156 168 -269 -111 159 -137 -257 246 -249 -254 153 0
144 -111 162 141 168 -269 147 159 -257 246 -249 -254 122 0
-245 -111 -195 162 207 168 258 147 159 -257 246 -249 -254 122 0
261 -267 -195 162 147 168 -269 -111 159 -257 246 -249 -254 0
-245 -111 208 144 141 168 -269 147 159 -257 246 -249 -254 122 0
-243 -267 -195 208 144 168 -269 -111 159 -137 -257 246 -249 -254 153 0
258 -111 168 -156 147 159 -137 -257 246 -249 -254 122 0
-243 144 141 162 168 -269 -111 159 -257 246 -249 -254 153 0
-167 261 141 255 162 144 258 -111 159 -257 246 -249 -254 122 0
258 -111 168 159 -137 -257 -259 246 -249 -254 122 0
-269 -111 -168 156 159 -257 -259 246 -249 264 -254 0
-243 144 147 141 162 -269 -111 159 -257 246 -249 264 -136 -254 0
261 255 147 144 141 162 -269 -111 159 -257 246 -249 -254 0
159 -257 -259 138 -254 247 0
-252 123 -245 111 -141 147 156 168 -159 242 138 -254 0
248 242 -119 111 -257 -259 138 -254 0
-266 242 261 -119 -371 367 144 147 -248 162 156 168 -269 -257 -148 -149 138 -254 153 0
-248 -141 -119 -371 367 144 208 261 147 -269 162 156 168 242 -257 246 138 -254 153 0
-141 242 147 111 -269 156 168 -159 162 -257 -259 246 -249 138 -254 153 0
-266 261 371 144 141 -17 111 147 -269 162 156 168 -137 242 -257 -259 246 319 264 205 -254 153 0
-244 -367 144 252 -225 -263 371 -219 147 -257 246 264 -331 0
-256 -137 267 261 -244 371 144 141 111 147 -17 162 156 168 258 242 -257 -259 246 319 264 205 -254 122 0
261 -137 371 144 141 111 147 -17 162 156 168 -269 242 -257 -259 246 -249 319 264 205 -254 122 0
-263 252 -367 -235 -261 -225 371 -219 147 162 -257 246 264 -331 0
267 -261 -219 -243 371 141 -367 147 162 156 -257 -259 246 138 -254 0
-255 -367 -140 243 -261 -225 371 -219 147 162 156 -257 -259 246 264 -331 0
-245 -176 -219 -235 -261 -381 371 -367 144 147 162 156 -257 -259 246 264 -331 0
252 242 -261 371 144 141 267 -219 147 -17 162 -269 156 -257 -259 246 -249 138 -254 122 0
-263 252 -367 -261 371 -219 162 156 100 -257 -259 246 138 -254 0
-269 242 371 144 147 141 162 156 168 111 -257 -259 246 -249 138 -254 122 0
-263 252 -17 267 367 -371 144 141 261 147 -269 162 156 168 242 -257 -259 246 -249 138 -254 0
-263 242 261 -371 144 141 267 147 111 162 156 168 -269 -257 -259 246 -249 138 -254 0
261 -272 367 267 -256 -371 144 141 111 147 258 162 156 242 -257 -259 246 -249 138 -254 122 0
-256 -263 -140 367 -255 113 -371 144 -195 -17 156 168 242 -257 -259 246 -249 138 -254 0
261 242 144 141 147 111 162 156 168 -269 -257 -259 246 -249 138 -254 122 0
-255 243 -140 367 -263 -371 111 156 168 242 -257 -259 246 138 -254 0
267 -225 111 -252 -261 -371 367 147 162 156 168 242 268 -257 -259 -148 138 -254 0
-232 -385 375 -367 -263 111 162 156 168 -257 -259 246 138 -254 0
-263 -261 267 -371 111 147 162 156 168 242 -257 -259 246 138 -254 0
-261 -225 -371 -243 140 267 141 147 162 156 268 -257 -259 -148 0
-225 -236 -261 -371 367 -243 -195 111 147 -202 156 242 -257 -259 246 138 -254 0
-225 -261 -243 -371 367 141 111 147 162 156 242 -257 -259 246 138 -254 0
263 242 367 -261 -371 144 141 -225 147 111 162 -269 156 -257 -259 246 -249 138 -254 122 0
-336 375 -371 -227 -367 -385 -243 141 -219 147 162 156 -225 268 264 -331 0
-385 243 250 -261 263 -367 -371 144 141 111 -269 162 156 242 -257 246 -249 138 -254 122 0
-266 39 250 -263 367 -155 -226 -146 -261 -371 -17 147 -269 162 156 168 242 -257 -259 246 138 -254 211 0
-243 -146 367 -263 -226 39 -261 -371 144 141 111 147 -269 162 156 168 242 -257 -259 246 -249 138 -254 211 0
-263 -267 367 -261 -371 144 141 111 147 -269 162 156 168 242 -257 -259 246 -249 138 -254 211 0
-244 -261 -243 367 -371 144 141 111 162 156 242 268 -257 -259 -148 138 -254 0
-267 -137 -367 -243 -371 144 141 111 375 162 156 168 -269 -257 -259 246 -249 138 -254 153 0
-263 168 -367 -261 111 162 156 -371 -257 -259 246 138 -254 0
-269 242 144 147 141 162 156 168 111 -257 -259 246 -249 138 -254 122 0
-367 -144 -219 -159 264 -331 0
-263 -140 261 -119 367 111 147 -269 162 156 168 242 -257 -259 246 138 -254 0
261 242 367 207 -195 111 147 -269 162 156 -119 168 -257 -259 246 138 -254 122 0
-263 261 144 -111 147 -269 156 168 -257 -259 246 -254 0
261 -269 144 147 -111 162 156 168 -257 -259 246 -254 153 0
-111 -269 147 144 162 156 168 -137 -257 -259 246 264 -254 153 0
-263 261 -195 -111 147 -269 162 156 168 -257 -259 246 -254 0
261 -269 141 147 -111 162 156 168 -257 -259 246 -254 122 0
-263 261 -119 367 111 141 144 -269 162 156 168 242 -257 -259 246 -249 138 -254 0
-263 250 -111 -195 144 156 168 -257 -259 246 264 -254 0
261 -269 141 144 -111 162 156 168 -257 -259 246 264 -254 122 0
162 242 156 168 -159 -269 -257 -259 246 -249 138 -254 122 0
-243 -173 -372 -371 -227 121 269 -336 268 0
-111 121 -257 246 -254 247 0
-243 242 -269 -248 367 -17 -195 144 147 156 -119 168 -257 246 -249 138 -254 153 0
-252 242 -269 255 -248 367 -17 141 144 147 156 -119 168 -257 246 -249 138 -254 0
-243 -137 -111 141 144 147 156 168 -269 -257 -259 246 -254 153 0
248 123 -111 -257 246 -254 0
-263 255 -269 -111 141 144 147 156 168 -257 -259 246 -254 0
-367 -156 -219 -159 264 -331 0
-243 242 -269 -263 367 -17 144 141 162 147 -119 168 -257 246 138 -254 0
140 263 -269 -119 367 -17 144 141 162 147 242 -257 246 -249 138 -254 153 0
256 263 -243 -269 -119 -371 367 144 141 162 147 168 242 -257 -148 -149 138 -254 153 0
-243 242 -269 367 -17 144 141 162 147 -119 168 -257 246 -249 138 -254 153 0
256 242 255 -140 -269 -252 -371 367 141 162 147 -119 168 -257 -148 -149 138 -254 0
255 242 -140 -269 -252 367 -17 144 141 162 147 -119 168 -257 246 -249 138 -254 0
367 242 -269 -17 -219 144 141 162 147 -119 168 -257 246 -249 138 -254 122 0
-156 242 168 -159 111 -257 138 -254 247 0
-243 -269 -252 -111 144 141 162 147 168 -257 246 -254 0
-243 -269 -111 144 141 162 147 168 -257 246 -254 153 0
256 255 -252 -269 -111 -202 141 147 168 -257 246 264 -254 0
255 -269 -252 -111 144 141 162 147 168 -257 246 264 -254 0
-367 -219 -168 -159 264 -331 0
-243 367 -248 -269 -17 -168 -159 242 -257 246 -249 138 -254 0
256 255 -269 111 -168 -159 242 -257 -259 246 138 -254 0
-269 111 -168 -159 242 -257 -259 246 -249 138 -254 0
-243 -248 -269 -111 208 144 147 156 141 162 -257 246 138 -254 0
256 255 -269 -248 -111 -202 147 156 141 -257 246 264 -254 0
-257 -259 138 -254 247 0
-245 -263 267 250 -261 -141 -242 162 147 156 -192 -159 168 -259 138 0
-385 250 -382 -226 -263 -261 -242 162 147 156 168 138 0
-370 -225 -141 -159 0
-382 -263 267 -261 -141 -242 162 147 156 -192 -159 168 -259 138 0
375 250 -117 -385 267 -263 -242 162 156 168 138 0
256 -141 -242 144 162 147 156 -269 -159 168 257 -259 246 138 211 0
-245 -256 -167 -141 -263 -242 144 147 156 -159 100 -259 270 138 0
-256 39 267 -123 -225 272 -226 -382 -242 144 147 156 168 -259 -194 0
-225 -256 272 267 -141 -242 144 147 156 -159 168 -259 -249 138 0
267 -256 272 -141 -242 144 147 156 -192 -159 168 -259 -249 138 0
-385 -382 250 -261 -256 -242 144 162 147 156 -249 138 0
-382 -261 250 -256 -141 -242 144 162 147 156 -159 -219 -259 -249 138 0
-261 267 250 -256 -141 -242 144 162 147 156 -159 -219 257 -259 -249 138 -181 0
267 -242 -141 -256 144 162 147 156 -269 -159 -219 168 257 -259 150 -48 -249 138 122 0
-261 -256 -263 -385 250 -141 -242 144 162 156 -192 -159 168 362 -249 138 0
272 -267 250 -261 -256 -141 -242 144 162 156 -192 -269 -159 168 -259 246 -249 138 211 0
-141 -242 144 162 147 156 -269 -159 -219 168 257 -259 246 -249 138 -254 122 0
256 -243 141 -242 144 162 156 -269 168 257 -259 150 -48 138 -172 0
252 -242 -256 261 -226 -255 39 -195 144 162 147 156 -269 168 257 -259 150 -48 -249 138 -254 153 0
-243 -242 141 144 162 147 156 -269 168 257 -259 120 -249 138 -254 122 0
-245 -255 -140 243 -261 -263 250 -167 -242 162 147 156 -192 100 -259 138 0
209 250 -146 243 -255 -261 245 -140 267 -242 162 -252 156 168 -259 138 0
243 250 -140 -255 -261 267 -263 -242 162 147 156 -192 168 -259 138 0
243 -140 256 141 -242 144 162 147 156 -269 168 257 -259 150 -48 138 211 0
-252 243 -255 261 267 -176 -140 141 -242 144 162 147 156 -269 168 257 -249 138 0
261 243 141 -242 144 162 147 156 -269 168 257 -259 150 -48 -249 138 -254 153 0
-245 -242 252 -263 250 267 -261 -256 369 144 162 147 156 -192 168 -259 138 0
369 250 -385 -235 252 -263 -370 267 -261 -176 -242 144 162 156 -192 138 0
243 -140 267 -261 -256 250 -263 -242 144 162 147 156 -269 111 168 257 -259 120 -249 264 138 122 0
-245 -140 -255 -261 -256 250 -242 144 162 147 156 257 -259 138 -181 0
-176 -375 -226 -202 -221 -333 267 -231 -261 115 -242 144 243 147 156 -259 -249 138 0
243 -140 -261 267 141 -242 144 162 147 156 -269 -159 111 168 257 -259 120 -249 264 138 122 0
-255 -261 -263 243 -256 250 -195 -242 144 162 156 -192 -159 168 -259 -249 138 -254 0
-242 144 162 147 156 -269 -159 111 168 257 -259 246 -249 138 -254 122 0
-252 -245 -256 -141 242 144 147 156 -159 111 168 -259 138 -254 0
-245 272 -256 -141 242 144 162 147 156 -192 -159 111 168 -259 -249 138 -254 0
261 -141 242 144 162 147 156 -269 -159 111 168 257 -259 150 -48 -249 138 -254 153 0
-375 -245 -263 -261 -141 242 -202 147 156 -192 -159 111 168 -259 138 -254 0
-245 -263 -261 -141 242 162 147 156 -192 -159 111 168 -259 138 -254 0
-266 -261 -141 242 162 147 156 -269 -159 111 168 257 -259 150 138 -254 211 0
-252 242 -261 367 -256 144 162 156 -17 168 257 -259 -249 138 -254 -181 0
-263 252 -256 -261 -141 242 144 162 156 -192 -159 111 100 -259 -249 138 -254 0
-375 267 -256 -261 -141 242 144 -202 147 156 -159 111 257 -259 138 -254 -181 0
-250 -245 -176 -256 -261 -141 242 144 162 147 156 -159 111 -259 138 -254 0
-141 242 144 162 147 156 -269 -159 111 168 257 -259 120 -249 138 -254 122 0
-252 -245 -255 -256 261 141 144 162 147 156 -269 168 257 -249 -194 205 -254 -181 0
-381 252 367 -245 -255 -263 -195 242 144 147 -17 138 -254 0
-381 252 -245 -385 -232 -255 -263 -195 144 147 156 100 0
-256 248 -255 252 -245 -263 141 242 144 147 156 -192 111 100 -259 -249 138 -254 0
-245 272 261 141 242 144 162 147 156 -269 111 168 257 -259 150 -48 -249 138 -254 -181 0
-256 -146 -255 267 -137 -252 -263 -115 -226 141 39 144 147 168 138 -254 0
115 -381 367 -226 -252 -255 -263 267 141 242 144 147 156 -17 168 -259 138 -254 0
-252 245 -263 261 141 242 144 162 147 156 -269 111 168 257 -259 120 -249 138 -254 211 0
-381 -226 272 267 -255 367 252 -195 242 144 156 -192 111 -259 138 -254 0
113 261 -225 248 -333 -140 -367 252 245 -176 -263 369 141 242 144 147 156 -269 111 100 257 -259 120 138 -254 211 0
-243 -248 -367 369 252 -176 -263 141 144 156 -192 -219 100 -259 264 -331 0
261 242 141 144 162 147 156 -269 111 168 257 -259 120 -249 138 -254 122 0
-252 -255 -245 -263 -261 -195 242 162 147 156 -219 168 -259 138 -254 0
-255 -245 367 252 272 -263 -261 141 242 162 147 156 -192 111 -259 138 -254 0
-245 -255 -263 -261 141 242 162 147 156 -192 111 168 -259 138 -254 0
267 -255 -226 367 -252 -261 141 242 162 147 156 111 168 -259 138 -254 0
-226 -252 267 -255 118 -261 141 242 162 147 156 111 168 -259 138 -254 0
267 -266 -226 367 252 -263 -255 -261 141 242 162 147 156 -192 -269 -17 100 -259 246 138 -254 211 0
248 252 267 -263 -333 113 118 -226 -367 -155 -261 141 242 162 -192 -219 168 -259 138 -254 0
-243 113 -367 252 -226 118 -333 267 -263 -261 141 242 162 156 -192 -219 168 -259 138 -254 0
-266 242 141 -261 162 147 156 -269 111 168 257 -259 246 138 -254 211 0
-252 -245 -256 -261 242 144 162 147 156 -17 168 257 -259 -249 138 -254 -181 0
252 -245 -263 367 -176 -256 -261 242 144 162 147 156 -192 111 100 -259 -249 138 -254 0
-385 -232 250 -367 -263 252 -261 162 -192 -219 100 264 -331 0
248 -235 252 -367 -263 250 -261 162 -192 -219 100 -259 264 -331 0
-245 -250 -367 -263 369 -176 144 -202 147 -219 168 264 -331 0
252 -245 -263 -176 -256 -261 242 144 162 147 156 -192 111 168 -259 -249 138 -254 0
248 -245 -255 367 -176 -256 -261 -195 242 144 162 147 64 111 -259 -249 138 -254 0
-255 -245 367 -176 -256 -261 -195 242 144 162 147 156 111 -259 -249 138 -254 0
375 -245 -381 -367 250 -255 -261 -195 242 144 162 147 138 -254 0
-245 -261 -256 -176 141 242 144 162 147 156 -269 111 168 257 -259 120 -249 138 -254 -181 0
-236 245 252 367 -244 -263 -176 -256 -261 -195 242 144 162 147 156 -269 111 168 257 -259 150 -48 138 -254 122 0
-263 245 367 -176 -256 -261 141 242 144 162 147 156 -269 111 168 257 -259 150 -48 -249 138 -254 122 0
250 -252 -255 -140 -381 -367 -256 -261 -195 144 162 156 -159 -219 168 -259 138 -254 0
250 -252 -140 -381 -367 -226 -256 -261 -195 144 162 147 156 -269 -159 -219 168 257 -259 150 -48 138 -254 211 0
-252 -140 -381 -367 -226 -176 -256 -261 141 144 162 147 156 -269 -159 -219 168 257 -259 150 -48 138 -254 211 0
-255 -244 243 250 252 -140 -367 -263 -261 141 144 162 156 -192 -219 100 -259 264 -331 0
-235 250 252 369 -367 -263 -226 -176 -256 -261 141 -137 242 144 162 147 156 -269 -17 -219 168 257 -259 150 -48 -249 264 205 -331 211 0
248 375 -263 113 -255 252 -140 369 -367 -155 -176 141 144 162 156 -192 -219 100 -259 264 -331 0
-250 -255 -263 252 369 -367 -140 -176 141 144 162 156 -192 -219 100 -259 138 -254 0
-263 245 -176 -256 -261 141 242 144 162 147 156 -269 -159 111 168 257 -259 150 -48 -249 138 -254 122 0
-370 -255 123 -236 367 -244 267 -261 141 242 144 -202 147 156 138 -254 0
39 252 367 267 -146 -255 -226 -256 -261 141 242 144 162 147 156 -269 111 168 257 -259 120 -249 138 -254 153 0
250 -381 -367 -255 267 -226 118 -261 141 144 162 156 -219 -259 138 -254 0
144 162 147 156 -269 -159 111 168 257 -259 246 -249 138 -254 122 0
-255 -140 272 -245 -167 -242 -144 147 156 -192 -159 100 -259 138 0
-252 -146 245 267 -140 -255 -242 -144 209 156 -159 168 -259 138 0
-243 -385 -263 267 -140 -242 -144 147 156 -192 -159 168 138 0
-123 -226 267 252 272 39 -146 156 168 -259 0
261 -140 -242 -144 162 147 156 -269 -159 168 257 -259 150 -48 138 153 0
-245 -167 -261 -263 -242 -144 162 147 156 -192 -159 100 -259 138 0
-232 243 -255 250 -236 -261 -140 -155 -144 -202 -159 168 -259 138 0
-252 245 -261 -140 -242 -144 162 147 156 -269 -159 168 257 -259 150 -48 138 211 0
250 -261 -263 -243 -242 367 141 162 156 -192 168 -259 138 -172 0
-255 252 -263 -261 -242 367 -144 162 156 -192 -159 168 -259 138 -172 0
-385 250 267 252 -226 -263 -261 -242 -144 162 147 156 -159 168 138 0
-263 -242 -261 367 -144 162 147 156 -269 -159 168 257 -259 150 -48 138 -172 211 0
-245 -140 -261 -255 -242 -144 162 147 156 -159 168 -259 138 0
-243 123 250 -226 267 -261 -140 -242 -144 162 147 156 -159 -259 138 0
250 -140 267 -272 -261 -255 -242 -144 162 147 156 -159 168 257 -259 150 138 247 0
-242 367 -144 162 147 156 -269 -159 168 257 -259 120 138 -172 247 0
-243 -245 272 242 -144 147 156 -192 -159 111 168 -259 138 -254 0
261 242 272 -245 267 -144 162 147 156 -269 -159 111 168 257 -259 150 -48 138 -254 0
140 123 242 -144 156 -159 111 -259 138 -254 0
-370 123 267 -263 -243 242 -144 156 -192 -159 111 168 -259 138 -254 0
-255 267 243 -140 -368 -370 -144 -159 0
261 242 -144 162 147 156 -269 -159 111 168 257 -259 150 -48 138 -254 153 0
140 272 -261 242 -144 -202 156 -159 111 168 -259 138 -254 0
-252 -243 -140 -261 242 -144 162 156 -159 111 168 -259 138 -254 0
-243 -263 -261 242 -144 162 156 -192 -159 111 168 -259 138 -254 0
-255 -252 243 -140 -261 242 367 -144 162 156 -159 168 -259 138 -254 0
267 -252 -385 -263 -261 242 367 162 147 156 -192 111 168 138 -254 0
-375 -263 -377 -235 -261 -144 -159 0
-263 242 -261 -144 162 147 156 -269 -159 111 168 257 -259 150 -48 138 -254 211 0
140 242 -261 -144 162 156 -159 111 -259 138 -254 0
-248 267 -243 -261 242 367 -144 162 147 156 -17 -159 138 -254 0
-243 267 -261 242 -144 162 147 156 -159 111 -259 138 -254 0
162 147 156 -269 111 168 -259 138 -254 247 0
123 -224 -243 -263 -140 -242 -162 147 156 -269 -159 168 257 -259 246 270 138 211 0
-243 -140 -263 -242 -162 147 156 -269 -159 168 257 -259 246 270 138 -254 211 0
-242 -400 -202 -194 0
-231 -242 -385 243 -263 -140 -167 -245 141 144 147 156 -269 100 257 -259 150 270 138 0
-117 -232 267 -224 -370 245 -385 243 -140 -146 -250 141 -269 257 150 0
-252 -385 245 243 -140 -242 -162 147 156 -269 -159 168 257 -259 150 -48 -249 138 211 0
-385 -232 -226 252 243 -263 -140 -162 147 -269 -159 100 257 120 211 0
-248 -226 267 252 -255 -385 243 -263 -140 -242 -162 147 156 -159 168 138 0
-248 39 252 267 -226 -385 243 -263 -140 -242 -162 147 156 -269 -159 168 257 150 -249 138 0
123 243 -263 -140 -242 -162 147 156 -269 -159 168 257 -259 120 -249 138 -254 211 0
-123 -242 243 -263 -140 -167 -245 141 144 147 156 -269 100 257 -259 150 -194 0
-224 -123 -146 267 243 -140 245 141 209 64 -269 257 -259 150 0
-224 -123 -146 243 -140 245 141 147 64 -269 257 -259 150 211 0
-263 -140 -242 -162 147 156 -269 -159 168 257 -259 246 -249 138 -254 211 0
-243 -140 267 -256 -242 -162 147 156 -159 -259 138 -254 0
-385 -140 243 -245 -255 -256 -242 144 147 156 -259 -249 138 0
-176 -140 243 -385 -255 267 -256 -242 -162 147 156 -159 -259 -249 138 0
-242 16 -162 147 156 -269 -159 168 257 -259 246 -249 138 -254 153 0
-393 -155 272 242 -162 156 -192 -159 111 168 -259 138 -254 0
-248 -263 -243 -140 242 367 -162 147 156 -269 -17 -159 168 257 -148 -149 150 -249 138 -254 211 0
-243 -263 242 -162 147 156 -269 -159 111 168 257 -259 -148 -149 150 -249 138 -254 211 0
-248 243 -245 -263 242 367 141 144 147 156 -269 -17 168 257 150 -249 138 -254 0
243 -263 -245 242 -162 147 156 -269 -159 111 168 257 -259 150 -249 138 -254 0
-115 -117 267 -370 -146 39 -368 243 141 -269 257 150 0
-248 -252 -167 -418 -370 -146 39 -368 243 -137 242 367 141 144 147 156 -269 -17 257 150 -48 -249 264 205 -172 211 0
-370 243 252 -263 242 367 -162 147 -269 -17 -159 100 257 150 -48 138 -254 211 0
-248 -252 -418 -370 -146 39 -368 243 -137 242 367 141 144 147 156 -269 -17 168 257 150 -48 -249 264 205 -172 211 0
-263 242 -162 147 156 -269 -159 111 168 257 -259 -148 -149 150 -48 -249 138 -254 211 0
-243 -176 -256 267 242 -162 147 156 -159 111 -259 -249 138 -254 0
147 156 -269 111 168 -259 138 -254 247 0
-243 -263 -140 -242 141 162 144 156 -269 168 257 -259 150 -48 -249 138 -254 0
-252 -232 -385 243 -140 -242 -147 156 -269 -159 168 257 150 -249 -194 -181 0
248 -385 243 -263 -140 -242 -147 156 -269 -159 168 257 -259 150 -48 -249 -194 -181 0
250 252 -232 -248 -385 243 -263 -140 -155 -242 141 162 -269 100 257 150 -48 138 0
256 250 252 -248 243 -263 -140 -155 -167 -242 -147 -269 -159 100 257 150 -48 138 0
-255 -256 252 -385 243 -263 -140 -242 144 156 -192 100 -249 138 -254 0
-385 -263 -140 -242 -147 156 -269 -159 168 257 -259 150 -48 -249 138 -254 -181 0
256 -236 -137 -252 385 243 -140 -155 -167 -242 -147 64 -269 -159 257 -259 120 0
